C                                       
   1.00000000000000     
    12.3354034424000005    0.0000000000000000    0.0000000000000000
     6.1677024323999996   10.6827723363999993    0.0000000000000000
     0.0000000000000000    0.0000000000000000   14.0000000000000000
   C    N    Pt   Os
    46     3     1     1
Selective dynamics
Direct
  0.0665663190000032  0.0669906210000022  0.5004398140000035   F   F   F
  0.0666526529999985  0.2666824320000032  0.4999943460000011   F   F   F
  0.0667941000000027  0.4665378569999987  0.5005455699999999   F   F   F
  0.0706612170000014  0.6646520500000008  0.5023992739999983   F   F   F
  0.0664876169999999  0.8670714390000001  0.5009741100000014   F   F   F
  0.2664195930000020  0.0669991239999987  0.4996051449999968   F   F   F
  0.2662403940000004  0.2662348440000031  0.5010815349999973   F   F   F
  0.2713709330000000  0.4615158060000013  0.5066214289999991   F   F   F
  0.2707852189999969  0.6681998159999978  0.4989519189736794   F   F   T
  0.2659251460000007  0.8681346710000000  0.4991162108725133   F   F   T
  0.4666076729999986  0.0665772179999990  0.4995008200000015   F   F   F
  0.4619278019999982  0.2703948600000032  0.5044732779999990   F   F   F
  0.4610081009999973  0.6682270439999982  0.4937076953173182   F   F   T
  0.4664204620000021  0.8670961680000033  0.4990671700000036   F   F   F
  0.6649995200000021  0.0699784379999997  0.4999987059999995   F   F   F
  0.6676713060000026  0.2703817820000012  0.4955458299999975   F   F   F
  0.6671363820000025  0.4615274120000024  0.4933618139999965   F   F   F
  0.6646876550000016  0.6646793230000014  0.4975711960000027   F   F   F
  0.6664519739999974  0.8665892799999995  0.4998470720000014   F   F   F
  0.8668106849999972  0.0665578010000019  0.5005224430000013   F   F   F
  0.8675187890000018  0.2662275229999977  0.4989165579999977   F   F   F
  0.8666790409999976  0.4665420079999976  0.4994074620000006   F   F   F
  0.8668715069999990  0.6662684120000009  0.4999916209999995   F   F   F
  0.8669580190000019  0.8665770499999965  0.5001582419999977   F   F   F
  0.9998846789999973  0.0001490000000004  0.5008745189999999   F   F   F
  0.0005561970000016  0.1998557149999982  0.4998454710000004   F   F   F
  0.9999529469999970  0.4001052540000032  0.4999788149999986   F   F   F
  0.0010406669999981  0.5995693770000017  0.5011765280000020   F   F   F
  0.0010613860000035  0.7993624229999980  0.5009932520000007   F   F   F
  0.1994287420000020  0.0011265739999970  0.5000337190000010   F   F   F
  0.1995741300000020  0.1998639950000012  0.5001640999999992   F   F   F
  0.2000713770000004  0.3990487180000031  0.5017310550000005   F   F   F
  0.2048348169999983  0.5977655430000013  0.5049212659999966   F   F   F
  0.1994804309999978  0.8017681290000027  0.5003177766666620   F   F   T
  0.3999418399999968  0.0001741960000032  0.4991690769999977   F   F   F
  0.3990853680000015  0.1996376009999992  0.5007607940000014   F   F   F
  0.3987372949999965  0.8017895549999992  0.4981396428068888   F   F   T
  0.5997115369999975  0.0006696539999993  0.5001382829999983   F   F   F
  0.5979848529999998  0.2040006439999971  0.5000027930000002   F   F   F
  0.5974061160000019  0.5977933960000001  0.4950311520000028   F   F   F
  0.5995614619999969  0.7993879550000003  0.4990083490000004   F   F   F
  0.7996077359999987  0.0006599929999993  0.4998690059999973   F   F   F
  0.8012774700000023  0.1996197910000035  0.4992525239999992   F   F   F
  0.8009005950000017  0.3990479590000007  0.4982377799999966   F   F   F
  0.7993987270000034  0.5995794199999978  0.4987900260000018   F   F   F
  0.8000838490000035  0.7998288699999989  0.5000005449999989   F   F   F
  0.3970358320000003  0.3954380159999999  0.5130980010000030   F   F   F
  0.3961583919999967  0.6076934129999998  0.4888748401435730   F   F   T
  0.6075708219999996  0.3954229289999986  0.4869461059999978   F   F   F
  0.3310449869999985  0.7379100019999996  0.3389500053695930   F   F   T
0.3310449870 0.7379100020 0.1824110031 F F F
 
  0.00000000E+00  0.00000000E+00  0.00000000E+00
  0.00000000E+00  0.00000000E+00  0.00000000E+00
  0.00000000E+00  0.00000000E+00  0.00000000E+00
  0.00000000E+00  0.00000000E+00  0.00000000E+00
  0.00000000E+00  0.00000000E+00  0.00000000E+00
  0.00000000E+00  0.00000000E+00  0.00000000E+00
  0.00000000E+00  0.00000000E+00  0.00000000E+00
  0.00000000E+00  0.00000000E+00  0.00000000E+00
  0.00000000E+00  0.00000000E+00  0.00000000E+00
  0.00000000E+00  0.00000000E+00  0.00000000E+00
  0.00000000E+00  0.00000000E+00  0.00000000E+00
  0.00000000E+00  0.00000000E+00  0.00000000E+00
  0.00000000E+00  0.00000000E+00  0.00000000E+00
  0.00000000E+00  0.00000000E+00  0.00000000E+00
  0.00000000E+00  0.00000000E+00  0.00000000E+00
  0.00000000E+00  0.00000000E+00  0.00000000E+00
  0.00000000E+00  0.00000000E+00  0.00000000E+00
  0.00000000E+00  0.00000000E+00  0.00000000E+00
  0.00000000E+00  0.00000000E+00  0.00000000E+00
  0.00000000E+00  0.00000000E+00  0.00000000E+00
  0.00000000E+00  0.00000000E+00  0.00000000E+00
  0.00000000E+00  0.00000000E+00  0.00000000E+00
  0.00000000E+00  0.00000000E+00  0.00000000E+00
  0.00000000E+00  0.00000000E+00  0.00000000E+00
  0.00000000E+00  0.00000000E+00  0.00000000E+00
  0.00000000E+00  0.00000000E+00  0.00000000E+00
  0.00000000E+00  0.00000000E+00  0.00000000E+00
  0.00000000E+00  0.00000000E+00  0.00000000E+00
  0.00000000E+00  0.00000000E+00  0.00000000E+00
  0.00000000E+00  0.00000000E+00  0.00000000E+00
  0.00000000E+00  0.00000000E+00  0.00000000E+00
  0.00000000E+00  0.00000000E+00  0.00000000E+00
  0.00000000E+00  0.00000000E+00  0.00000000E+00
  0.00000000E+00  0.00000000E+00  0.00000000E+00
  0.00000000E+00  0.00000000E+00  0.00000000E+00
  0.00000000E+00  0.00000000E+00  0.00000000E+00
  0.00000000E+00  0.00000000E+00  0.00000000E+00
  0.00000000E+00  0.00000000E+00  0.00000000E+00
  0.00000000E+00  0.00000000E+00  0.00000000E+00
  0.00000000E+00  0.00000000E+00  0.00000000E+00
  0.00000000E+00  0.00000000E+00  0.00000000E+00
  0.00000000E+00  0.00000000E+00  0.00000000E+00
  0.00000000E+00  0.00000000E+00  0.00000000E+00
  0.00000000E+00  0.00000000E+00  0.00000000E+00
  0.00000000E+00  0.00000000E+00  0.00000000E+00
  0.00000000E+00  0.00000000E+00  0.00000000E+00
  0.00000000E+00  0.00000000E+00  0.00000000E+00
  0.00000000E+00  0.00000000E+00  0.00000000E+00
  0.00000000E+00  0.00000000E+00  0.00000000E+00
  0.00000000E+00  0.00000000E+00  0.00000000E+00
  0.00000000E+00  0.00000000E+00  0.00000000E+00
