51

C      12.961962115604589      0.350186641997753      1.178727311301548
C      11.576953769989553      2.687416333768809      1.176631071278566
C      10.233348618509186      5.059553265257673      1.175982080342993
C       8.894503680077271      7.423952200881964      1.183679434763799
C       7.538231186020749      9.785167757416188      1.180954900985655
C       2.101390413837739      0.389288034352570      1.183363527310367
C       0.625058146356870      2.718000417011741      1.161726846208777
C      -0.689848775822686      4.960751363999446      1.179367385245066
C      -1.974320880360154      7.423147568076130      1.190942544757137
C      -3.342450610811497      9.791196091551315      1.183679695464751
C       4.827903905974662      0.365633625264815      1.177197328869883
C       3.554325251211305      2.766467566258838      1.192540477905447
C       0.800394777857862      7.541955839485150      1.179374045036106
C      -0.625388320456409      9.813920072888232      1.175981923352137
C       7.542891280834744      0.367721054378495      1.167928818664553
C       6.205708252234308      2.700410457906213      1.165895932320823
C       4.822803359550189      4.963543994938840      1.192545834312267
C       3.400125960588727      7.524601275351083      1.161739762014902
C       2.100740582125506      9.836384232129234      1.176630448102783
C      10.255049802780949      0.362525236650967      1.170309138244968
C       8.894458011052389      2.708716905525824      1.167925638681630
C       7.538771228563631      5.061004985595245      1.177194520694436
C       6.155035012611479      7.410399720850267      1.183367604638605
C       4.817347845492167      9.805556185895641      1.178731294523419
C      -0.708010691872417      1.915239746680578      1.175055245772411
C      -2.077536505902846      4.269285984760302      1.175277204392377
C      -3.384292573789641      6.656620927677857      1.180376644373343
C      -4.740364647708183      9.020133749484982      1.179455161782419
C      -6.102825505407942     11.385107224233867      1.175051592903234
C       2.057806520620269      2.010030264787710      1.172339362822562
C      -0.642377596545360      6.654152705564121      1.184325060680006
C      -2.015475352576051      9.027483522913185      1.180372927322291
C      -3.376577118811346     11.390887922499033      1.179369269449717
C       4.821091705665869      1.941899545544239      1.168555531448700
C       0.705368241509338      9.089481885244975      1.175283761104053
C      -0.656668249950094     11.386924211667617      1.172200994835794
C       7.514102215094419      1.945006941001711      1.164593781321107
C       6.170279906572980      4.278772137456398      1.168549659350820
C       4.729628137271579      6.637779935717955      1.172342219472441
C       3.428817015469444      9.080453422774459      1.175056683868912
C       2.066925207255750     11.394365884663763      1.169345077272245
C      10.210805151577812      1.937709514318527      1.169343888629847
C       8.855455110514733      4.300138094673240      1.172194780521967
C       7.492062374782746      6.653680435731974      1.179374205716455
C       6.133936332548208      9.017560397896251      1.175054575943894
C       4.782505513551950     11.376177218557610      1.172892474039564
N       0.485531269676729      4.194294597806313      1.236303715364837
N       3.594705542492096      4.207862112707936      1.247251685659149
N       2.051832492165900      6.907292665935772      1.236300851916556
Pd      2.053598351594426      5.022312456863813      2.534524634364337
Mn      2.053598351594426      5.022312456863813      4.855585812888446
