Cu(111) surface                         
   1.00000000000000     
    12.7550029755000001    0.0000000000000000    0.0000000000000000
    -6.3775029586000000   11.0461557529000007    0.0000000000000000
     0.0000000000000000    0.0000000000000000   22.8339500426999997
   Cu   C    N    Pd   Os
   100    46     3     1     1
Selective dynamics
Direct
  0.0000000000000000  0.0000000000000000  0.0895158200000026   F   F   F
  0.0000000000000000  0.2000000029999995  0.0895158200000026   F   F   F
  0.0000000000000000  0.4000000059999991  0.0895158200000026   F   F   F
  0.0000000000000000  0.6000000240000034  0.0895158200000026   F   F   F
  0.0000000000000000  0.8000000119999982  0.0895158200000026   F   F   F
  0.2000000029999995  0.0000000000000000  0.0895158200000026   F   F   F
  0.2000000029999995  0.2000000029999995  0.0895158200000026   F   F   F
  0.2000000029999995  0.4000000059999991  0.0895158200000026   F   F   F
  0.2000000029999995  0.6000000240000034  0.0895158200000026   F   F   F
  0.2000000029999995  0.8000000119999982  0.0895158200000026   F   F   F
  0.4000000059999991  0.0000000000000000  0.0895158200000026   F   F   F
  0.4000000059999991  0.2000000029999995  0.0895158200000026   F   F   F
  0.4000000059999991  0.4000000059999991  0.0895158200000026   F   F   F
  0.4000000059999991  0.6000000240000034  0.0895158200000026   F   F   F
  0.4000000059999991  0.8000000119999982  0.0895158200000026   F   F   F
  0.6000000240000034  0.0000000000000000  0.0895158200000026   F   F   F
  0.6000000240000034  0.2000000029999995  0.0895158200000026   F   F   F
  0.6000000240000034  0.4000000059999991  0.0895158200000026   F   F   F
  0.6000000240000034  0.6000000240000034  0.0895158200000026   F   F   F
  0.6000000240000034  0.8000000119999982  0.0895158200000026   F   F   F
  0.8000000119999982  0.0000000000000000  0.0895158200000026   F   F   F
  0.8000000119999982  0.2000000029999995  0.0895158200000026   F   F   F
  0.8000000119999982  0.4000000059999991  0.0895158200000026   F   F   F
  0.8000000119999982  0.6000000240000034  0.0895158200000026   F   F   F
  0.8000000119999982  0.8000000119999982  0.0895158200000026   F   F   F
  0.0666666699999965  0.1333333400000001  0.1807345149999975   F   F   F
  0.0666666699999965  0.3333333429999996  0.1807345149999975   F   F   F
  0.0666666699999965  0.5333333609999968  0.1807345149999975   F   F   F
  0.0666666699999965  0.7333333489999987  0.1807345149999975   F   F   F
  0.0666666699999965  0.9333333370000005  0.1807345149999975   F   F   F
  0.2666666809999967  0.1333333400000001  0.1807345149999975   F   F   F
  0.2666666809999967  0.3333333429999996  0.1807345149999975   F   F   F
  0.2666666809999967  0.5333333609999968  0.1807345149999975   F   F   F
  0.2666666809999967  0.7333333489999987  0.1807345149999975   F   F   F
  0.2666666809999967  0.9333333370000005  0.1807345149999975   F   F   F
  0.4666666689999985  0.1333333400000001  0.1807345149999975   F   F   F
  0.4666666689999985  0.3333333429999996  0.1807345149999975   F   F   F
  0.4666666689999985  0.5333333609999968  0.1807345149999975   F   F   F
  0.4666666689999985  0.7333333489999987  0.1807345149999975   F   F   F
  0.4666666689999985  0.9333333370000005  0.1807345149999975   F   F   F
  0.6666666870000029  0.1333333400000001  0.1807345149999975   F   F   F
  0.6666666870000029  0.3333333429999996  0.1807345149999975   F   F   F
  0.6666666870000029  0.5333333609999968  0.1807345149999975   F   F   F
  0.6666666870000029  0.7333333489999987  0.1807345149999975   F   F   F
  0.6666666870000029  0.9333333370000005  0.1807345149999975   F   F   F
  0.8666666749999976  0.1333333400000001  0.1807345149999975   F   F   F
  0.8666666749999976  0.3333333429999996  0.1807345149999975   F   F   F
  0.8666666749999976  0.5333333609999968  0.1807345149999975   F   F   F
  0.8666666749999976  0.7333333489999987  0.1807345149999975   F   F   F
  0.8666666749999976  0.9333333370000005  0.1807345149999975   F   F   F
  0.1338369407664111  0.0668555321253610  0.2687952959391815   T   T   T
  0.1336875344773794  0.2667023283043369  0.2688537161580941   T   T   T
  0.1338793384702042  0.4666285959938465  0.2687985515602374   T   T   T
  0.1334418140739217  0.6665177585089441  0.2688024135826196   T   T   T
  0.1334387768174732  0.8665738433897674  0.2687701900326720   T   T   T
  0.3339964849391038  0.0676136461884645  0.2689835492725943   T   T   T
  0.3346924459609821  0.2681973135892999  0.2700226052800996   T   T   T
  0.3347478758157684  0.4661529878632688  0.2700593286255121   T   T   T
  0.3339920227243049  0.6660125763246304  0.2690404580528755   T   T   T
  0.3334862428981704  0.8665718691333452  0.2688034632852725   T   T   T
  0.5333650183180689  0.0668827636325454  0.2688209438922062   T   T   T
  0.5339346945512496  0.2683264961828187  0.2700347331807579   T   T   T
  0.5335375297453443  0.4664730255701707  0.2718771783966197   T   T   T
  0.5338531659231357  0.6652501040145296  0.2700638477811598   T   T   T
  0.5333686693366905  0.8661208920344807  0.2687981147880417   T   T   T
  0.7334127796426591  0.0665290118700919  0.2688548813274584   T   T   T
  0.7333544761584818  0.2666464272040809  0.2688219841295740   T   T   T
  0.7316917589394942  0.4660765888843332  0.2700303368571706   T   T   T
  0.7318070014051271  0.6653016344038173  0.2700265547463471   T   T   T
  0.7332942252322667  0.8663083402667100  0.2688534585356475   T   T   T
  0.9334605605263864  0.0665368160516148  0.2688605195484881   T   T   T
  0.9334697051721091  0.2665861104432738  0.2688544652402654   T   T   T
  0.9331223909415787  0.4666318505858593  0.2688197450687693   T   T   T
  0.9324149444657783  0.6660053324925276  0.2689771068303528   T   T   T
  0.9331440830985129  0.8661579750503853  0.2687942394986505   T   T   T
  0.0002641315802151  0.9997338498548156  0.3567704766129686   T   T   T
  0.0000448924728923  0.1997310924123667  0.3569504627660558   T   T   T
  0.0002653808526620  0.3998816132442716  0.3567321322091753   T   T   T
  0.0006880469743923  0.5998954837191810  0.3567723948520385   T   T   T
  0.0007014274414078  0.8001112629788363  0.3567579685081018   T   T   T
  0.1998874445967019  0.9992994004310851  0.3567614169707883   T   T   T
  0.1995912413086547  0.1993336283519351  0.3567529362563018   T   T   T
  0.1996445698109477  0.3996118126003281  0.3567868413762963   T   T   T
  0.1998242512324056  0.5999007551899682  0.3568045512767535   T   T   T
  0.2001535516923842  0.7998439085636173  0.3567021182411279   T   T   T
  0.4001027931059148  0.9993163771015497  0.3567737384688078   T   T   T
  0.3997122503382250  0.1987431054993844  0.3579186586857744   T   T   T
  0.4010377656479989  0.4000909167766940  0.3620374928313598   T   T   T
  0.3997660724667900  0.6002305528682785  0.3580090274648096   T   T   T
  0.4000994050546419  0.8001767760322458  0.3568042648444406   T   T   T
  0.6001179098923977  0.9997342916856624  0.3567317617686149   T   T   T
  0.6003964833210597  0.1992915341102474  0.3567422979838885   T   T   T
  0.5998426766796193  0.4001523277358262  0.3623063135723187   T   T   T
  0.5999088523655864  0.5989478157265515  0.3620587856477434   T   T   T
  0.6003870988340475  0.8003551634102857  0.3567849630644603   T   T   T
  0.8002667510917683 -0.0000476532590447  0.3569507438438944   T   T   T
  0.8002901619411349  0.1997086385655519  0.3569313821174031   T   T   T
  0.8007101899229672  0.3996073284246473  0.3567398805208716   T   T   T
  0.8012718418174948  0.6002911945582012  0.3579142856659869   T   T   T
  0.8006677309342149  0.8004096424928762  0.3567510659112914   T   T   T
  0.1336865907651728  0.0647400559542067  0.4753893308593778   T   T   T
  0.1318566253609521  0.2641149252779630  0.4751195145599530   T   T   T
  0.1336864876519444  0.4653087498811126  0.4754225926124070   T   T   T
  0.1346441367127905  0.6656265947027656  0.4751293375851240   T   T   T
  0.1346396345761502  0.8653637749218548  0.4751224349681836   T   T   T
  0.3353138385120466  0.0669939052936260  0.4732922409396211   T   T   T
  0.3294042881620234  0.2651506815918754  0.4695579731616897   T   T   T
  0.3294113802064548  0.4606249060465517  0.4696507771320427   T   T   T
  0.3353320371520858  0.6646790280813891  0.4733599889959481   T   T   T
  0.3343813311860854  0.8653614088220533  0.4751231397006914   T   T   T
  0.5346958132777166  0.0647358807573361  0.4754119505149587   T   T   T
  0.5393677177741049  0.2651154615172198  0.4694222774878224   T   T   T
  0.5393816822056690  0.6705918381149407  0.4696389672374929   T   T   T
  0.5346955638044782  0.8663131933583527  0.4754235638748207   T   T   T
  0.7344384485446650  0.0654056558369160  0.4763924529731341   T   T   T
  0.7358883002497130  0.2641196495103999  0.4750721012604852   T   T   T
  0.7348975245907178  0.4606417021496390  0.4694178545907310   T   T   T
  0.7348590031404032  0.6706030693066050  0.4695412164231630   T   T   T
  0.7358882071275934  0.8681414194880698  0.4751237923519779   T   T   T
  0.9346143579303720  0.0653963071523823  0.4763841974400631   T   T   T
  0.9346004205410821  0.2655636595637882  0.4763888466492050   T   T   T
  0.9352750975400024  0.4653116694599269  0.4754163304377225   T   T   T
  0.9330153785186162  0.6646966236317139  0.4732927852667788   T   T   T
  0.9352669085255908  0.8663171843540964  0.4753939491657587   T   T   T
  0.0010312076805480  0.9989788924267911  0.4759978287157960   T   T   T
  0.0006109154955427  0.1984944531745047  0.4762219677388596   T   T   T
  0.0010308684962178  0.3984295727651515  0.4760212099073876   T   T   T
  0.0010262110380304  0.5988323546485838  0.4744558223536467   T   T   T
  0.0010199356285706  0.7985530731461657  0.4744566393962150   T   T   T
  0.2014536086149632  0.9989847237746509  0.4744527908085023   T   T   T
  0.1981685668088150  0.1966572843326469  0.4741635657359417   T   T   T
  0.1981782786264008  0.3978930419162341  0.4742088096259771   T   T   T
  0.2014562511352480  0.5988305394703907  0.4744776935804470   T   T   T
  0.2012163235043770  0.7987852068460278  0.4748767617588927   T   T   T
  0.4011764143165155  0.9989794037143445  0.4744482903130186   T   T   T
  0.4026503883488467  0.2016975132075124  0.4692097350968049   T   T   T
  0.4026732821460641  0.5973362919314771  0.4693578472801698   T   T   T
  0.4011798269570716  0.7985530624837045  0.4744741633555054   T   T   T
  0.6015755604675851  0.9989764321033996  0.4760220900166266   T   T   T
  0.6021168572898946  0.1966696224412498  0.4741484475416430   T   T   T
  0.6021145316709148  0.8018282707030419  0.4742109897531691   T   T   T
  0.8015135225023002  0.9993933110736396  0.4762258918401918   T   T   T
  0.8015115633780138  0.1984996988341303  0.4762133016599824   T   T   T
  0.8033475873331622  0.3978981091626287  0.4741487833786267   T   T   T
  0.7983187672311948  0.5973629737690903  0.4692001160976444   T   T   T
  0.8033597808961139  0.8018411630390022  0.4741651879437053   T   T   T
  0.3876270095540246  0.3920128478198068  0.4647702326659073   T   T   T
  0.6080132687959985  0.3919897148198808  0.4642886535003055   T   T   T
  0.6079891471920693  0.6123747597826752  0.4647262606685109   T   T   T
  0.5347580840377029  0.4652753612391493  0.5315891702287153   T   T   T
  0.5351735333566451  0.4647928627013267  0.6340523356447182   T   T   T
 
  0.00000000E+00  0.00000000E+00  0.00000000E+00
  0.00000000E+00  0.00000000E+00  0.00000000E+00
  0.00000000E+00  0.00000000E+00  0.00000000E+00
  0.00000000E+00  0.00000000E+00  0.00000000E+00
  0.00000000E+00  0.00000000E+00  0.00000000E+00
  0.00000000E+00  0.00000000E+00  0.00000000E+00
  0.00000000E+00  0.00000000E+00  0.00000000E+00
  0.00000000E+00  0.00000000E+00  0.00000000E+00
  0.00000000E+00  0.00000000E+00  0.00000000E+00
  0.00000000E+00  0.00000000E+00  0.00000000E+00
  0.00000000E+00  0.00000000E+00  0.00000000E+00
  0.00000000E+00  0.00000000E+00  0.00000000E+00
  0.00000000E+00  0.00000000E+00  0.00000000E+00
  0.00000000E+00  0.00000000E+00  0.00000000E+00
  0.00000000E+00  0.00000000E+00  0.00000000E+00
  0.00000000E+00  0.00000000E+00  0.00000000E+00
  0.00000000E+00  0.00000000E+00  0.00000000E+00
  0.00000000E+00  0.00000000E+00  0.00000000E+00
  0.00000000E+00  0.00000000E+00  0.00000000E+00
  0.00000000E+00  0.00000000E+00  0.00000000E+00
  0.00000000E+00  0.00000000E+00  0.00000000E+00
  0.00000000E+00  0.00000000E+00  0.00000000E+00
  0.00000000E+00  0.00000000E+00  0.00000000E+00
  0.00000000E+00  0.00000000E+00  0.00000000E+00
  0.00000000E+00  0.00000000E+00  0.00000000E+00
  0.00000000E+00  0.00000000E+00  0.00000000E+00
  0.00000000E+00  0.00000000E+00  0.00000000E+00
  0.00000000E+00  0.00000000E+00  0.00000000E+00
  0.00000000E+00  0.00000000E+00  0.00000000E+00
  0.00000000E+00  0.00000000E+00  0.00000000E+00
  0.00000000E+00  0.00000000E+00  0.00000000E+00
  0.00000000E+00  0.00000000E+00  0.00000000E+00
  0.00000000E+00  0.00000000E+00  0.00000000E+00
  0.00000000E+00  0.00000000E+00  0.00000000E+00
  0.00000000E+00  0.00000000E+00  0.00000000E+00
  0.00000000E+00  0.00000000E+00  0.00000000E+00
  0.00000000E+00  0.00000000E+00  0.00000000E+00
  0.00000000E+00  0.00000000E+00  0.00000000E+00
  0.00000000E+00  0.00000000E+00  0.00000000E+00
  0.00000000E+00  0.00000000E+00  0.00000000E+00
  0.00000000E+00  0.00000000E+00  0.00000000E+00
  0.00000000E+00  0.00000000E+00  0.00000000E+00
  0.00000000E+00  0.00000000E+00  0.00000000E+00
  0.00000000E+00  0.00000000E+00  0.00000000E+00
  0.00000000E+00  0.00000000E+00  0.00000000E+00
  0.00000000E+00  0.00000000E+00  0.00000000E+00
  0.00000000E+00  0.00000000E+00  0.00000000E+00
  0.00000000E+00  0.00000000E+00  0.00000000E+00
  0.00000000E+00  0.00000000E+00  0.00000000E+00
  0.00000000E+00  0.00000000E+00  0.00000000E+00
  0.00000000E+00  0.00000000E+00  0.00000000E+00
  0.00000000E+00  0.00000000E+00  0.00000000E+00
  0.00000000E+00  0.00000000E+00  0.00000000E+00
  0.00000000E+00  0.00000000E+00  0.00000000E+00
  0.00000000E+00  0.00000000E+00  0.00000000E+00
  0.00000000E+00  0.00000000E+00  0.00000000E+00
  0.00000000E+00  0.00000000E+00  0.00000000E+00
  0.00000000E+00  0.00000000E+00  0.00000000E+00
  0.00000000E+00  0.00000000E+00  0.00000000E+00
  0.00000000E+00  0.00000000E+00  0.00000000E+00
  0.00000000E+00  0.00000000E+00  0.00000000E+00
  0.00000000E+00  0.00000000E+00  0.00000000E+00
  0.00000000E+00  0.00000000E+00  0.00000000E+00
  0.00000000E+00  0.00000000E+00  0.00000000E+00
  0.00000000E+00  0.00000000E+00  0.00000000E+00
  0.00000000E+00  0.00000000E+00  0.00000000E+00
  0.00000000E+00  0.00000000E+00  0.00000000E+00
  0.00000000E+00  0.00000000E+00  0.00000000E+00
  0.00000000E+00  0.00000000E+00  0.00000000E+00
  0.00000000E+00  0.00000000E+00  0.00000000E+00
  0.00000000E+00  0.00000000E+00  0.00000000E+00
  0.00000000E+00  0.00000000E+00  0.00000000E+00
  0.00000000E+00  0.00000000E+00  0.00000000E+00
  0.00000000E+00  0.00000000E+00  0.00000000E+00
  0.00000000E+00  0.00000000E+00  0.00000000E+00
  0.00000000E+00  0.00000000E+00  0.00000000E+00
  0.00000000E+00  0.00000000E+00  0.00000000E+00
  0.00000000E+00  0.00000000E+00  0.00000000E+00
  0.00000000E+00  0.00000000E+00  0.00000000E+00
  0.00000000E+00  0.00000000E+00  0.00000000E+00
  0.00000000E+00  0.00000000E+00  0.00000000E+00
  0.00000000E+00  0.00000000E+00  0.00000000E+00
  0.00000000E+00  0.00000000E+00  0.00000000E+00
  0.00000000E+00  0.00000000E+00  0.00000000E+00
  0.00000000E+00  0.00000000E+00  0.00000000E+00
  0.00000000E+00  0.00000000E+00  0.00000000E+00
  0.00000000E+00  0.00000000E+00  0.00000000E+00
  0.00000000E+00  0.00000000E+00  0.00000000E+00
  0.00000000E+00  0.00000000E+00  0.00000000E+00
  0.00000000E+00  0.00000000E+00  0.00000000E+00
  0.00000000E+00  0.00000000E+00  0.00000000E+00
  0.00000000E+00  0.00000000E+00  0.00000000E+00
  0.00000000E+00  0.00000000E+00  0.00000000E+00
  0.00000000E+00  0.00000000E+00  0.00000000E+00
  0.00000000E+00  0.00000000E+00  0.00000000E+00
  0.00000000E+00  0.00000000E+00  0.00000000E+00
  0.00000000E+00  0.00000000E+00  0.00000000E+00
  0.00000000E+00  0.00000000E+00  0.00000000E+00
  0.00000000E+00  0.00000000E+00  0.00000000E+00
  0.00000000E+00  0.00000000E+00  0.00000000E+00
  0.00000000E+00  0.00000000E+00  0.00000000E+00
  0.00000000E+00  0.00000000E+00  0.00000000E+00
  0.00000000E+00  0.00000000E+00  0.00000000E+00
  0.00000000E+00  0.00000000E+00  0.00000000E+00
  0.00000000E+00  0.00000000E+00  0.00000000E+00
  0.00000000E+00  0.00000000E+00  0.00000000E+00
  0.00000000E+00  0.00000000E+00  0.00000000E+00
  0.00000000E+00  0.00000000E+00  0.00000000E+00
  0.00000000E+00  0.00000000E+00  0.00000000E+00
  0.00000000E+00  0.00000000E+00  0.00000000E+00
  0.00000000E+00  0.00000000E+00  0.00000000E+00
  0.00000000E+00  0.00000000E+00  0.00000000E+00
  0.00000000E+00  0.00000000E+00  0.00000000E+00
  0.00000000E+00  0.00000000E+00  0.00000000E+00
  0.00000000E+00  0.00000000E+00  0.00000000E+00
  0.00000000E+00  0.00000000E+00  0.00000000E+00
  0.00000000E+00  0.00000000E+00  0.00000000E+00
  0.00000000E+00  0.00000000E+00  0.00000000E+00
  0.00000000E+00  0.00000000E+00  0.00000000E+00
  0.00000000E+00  0.00000000E+00  0.00000000E+00
  0.00000000E+00  0.00000000E+00  0.00000000E+00
  0.00000000E+00  0.00000000E+00  0.00000000E+00
  0.00000000E+00  0.00000000E+00  0.00000000E+00
  0.00000000E+00  0.00000000E+00  0.00000000E+00
  0.00000000E+00  0.00000000E+00  0.00000000E+00
  0.00000000E+00  0.00000000E+00  0.00000000E+00
  0.00000000E+00  0.00000000E+00  0.00000000E+00
  0.00000000E+00  0.00000000E+00  0.00000000E+00
  0.00000000E+00  0.00000000E+00  0.00000000E+00
  0.00000000E+00  0.00000000E+00  0.00000000E+00
  0.00000000E+00  0.00000000E+00  0.00000000E+00
  0.00000000E+00  0.00000000E+00  0.00000000E+00
  0.00000000E+00  0.00000000E+00  0.00000000E+00
  0.00000000E+00  0.00000000E+00  0.00000000E+00
  0.00000000E+00  0.00000000E+00  0.00000000E+00
  0.00000000E+00  0.00000000E+00  0.00000000E+00
  0.00000000E+00  0.00000000E+00  0.00000000E+00
  0.00000000E+00  0.00000000E+00  0.00000000E+00
  0.00000000E+00  0.00000000E+00  0.00000000E+00
  0.00000000E+00  0.00000000E+00  0.00000000E+00
  0.00000000E+00  0.00000000E+00  0.00000000E+00
  0.00000000E+00  0.00000000E+00  0.00000000E+00
  0.00000000E+00  0.00000000E+00  0.00000000E+00
  0.00000000E+00  0.00000000E+00  0.00000000E+00
  0.00000000E+00  0.00000000E+00  0.00000000E+00
  0.00000000E+00  0.00000000E+00  0.00000000E+00
  0.00000000E+00  0.00000000E+00  0.00000000E+00
  0.00000000E+00  0.00000000E+00  0.00000000E+00
  0.00000000E+00  0.00000000E+00  0.00000000E+00
  0.00000000E+00  0.00000000E+00  0.00000000E+00
  0.00000000E+00  0.00000000E+00  0.00000000E+00
