Ni(111) surface                         
   1.00000000000000     
    12.3556299210000002    0.0000000000000000    0.0000000000000000
    -6.1778163852999999   10.7002885686999996    0.0000000000000000
     0.0000000000000000    0.0000000000000000   22.1189937591999986
   Ni   C    N    Pd   Os
   100    46     3     1     1
Selective dynamics
Direct
  0.0000000000000000  0.0000000000000000  0.0895158200000026   F   F   F
  0.0000000000000000  0.2000000029999995  0.0895158200000026   F   F   F
  0.0000000000000000  0.4000000059999991  0.0895158200000026   F   F   F
  0.0000000000000000  0.6000000240000034  0.0895158200000026   F   F   F
  0.0000000000000000  0.8000000119999982  0.0895158200000026   F   F   F
  0.2000000029999995  0.0000000000000000  0.0895158200000026   F   F   F
  0.2000000029999995  0.2000000029999995  0.0895158200000026   F   F   F
  0.2000000029999995  0.4000000059999991  0.0895158200000026   F   F   F
  0.2000000029999995  0.6000000240000034  0.0895158200000026   F   F   F
  0.2000000029999995  0.8000000119999982  0.0895158200000026   F   F   F
  0.4000000059999991  0.0000000000000000  0.0895158200000026   F   F   F
  0.4000000059999991  0.2000000029999995  0.0895158200000026   F   F   F
  0.4000000059999991  0.4000000059999991  0.0895158200000026   F   F   F
  0.4000000059999991  0.6000000240000034  0.0895158200000026   F   F   F
  0.4000000059999991  0.8000000119999982  0.0895158200000026   F   F   F
  0.6000000240000034  0.0000000000000000  0.0895158200000026   F   F   F
  0.6000000240000034  0.2000000029999995  0.0895158200000026   F   F   F
  0.6000000240000034  0.4000000059999991  0.0895158200000026   F   F   F
  0.6000000240000034  0.6000000240000034  0.0895158200000026   F   F   F
  0.6000000240000034  0.8000000119999982  0.0895158200000026   F   F   F
  0.8000000119999982  0.0000000000000000  0.0895158200000026   F   F   F
  0.8000000119999982  0.2000000029999995  0.0895158200000026   F   F   F
  0.8000000119999982  0.4000000059999991  0.0895158200000026   F   F   F
  0.8000000119999982  0.6000000240000034  0.0895158200000026   F   F   F
  0.8000000119999982  0.8000000119999982  0.0895158200000026   F   F   F
  0.0666666699999965  0.1333333400000001  0.1807345149999975   F   F   F
  0.0666666699999965  0.3333333429999996  0.1807345149999975   F   F   F
  0.0666666699999965  0.5333333609999968  0.1807345149999975   F   F   F
  0.0666666699999965  0.7333333489999987  0.1807345149999975   F   F   F
  0.0666666699999965  0.9333333370000005  0.1807345149999975   F   F   F
  0.2666666809999967  0.1333333400000001  0.1807345149999975   F   F   F
  0.2666666809999967  0.3333333429999996  0.1807345149999975   F   F   F
  0.2666666809999967  0.5333333609999968  0.1807345149999975   F   F   F
  0.2666666809999967  0.7333333489999987  0.1807345149999975   F   F   F
  0.2666666809999967  0.9333333370000005  0.1807345149999975   F   F   F
  0.4666666689999985  0.1333333400000001  0.1807345149999975   F   F   F
  0.4666666689999985  0.3333333429999996  0.1807345149999975   F   F   F
  0.4666666689999985  0.5333333609999968  0.1807345149999975   F   F   F
  0.4666666689999985  0.7333333489999987  0.1807345149999975   F   F   F
  0.4666666689999985  0.9333333370000005  0.1807345149999975   F   F   F
  0.6666666870000029  0.1333333400000001  0.1807345149999975   F   F   F
  0.6666666870000029  0.3333333429999996  0.1807345149999975   F   F   F
  0.6666666870000029  0.5333333609999968  0.1807345149999975   F   F   F
  0.6666666870000029  0.7333333489999987  0.1807345149999975   F   F   F
  0.6666666870000029  0.9333333370000005  0.1807345149999975   F   F   F
  0.8666666749999976  0.1333333400000001  0.1807345149999975   F   F   F
  0.8666666749999976  0.3333333429999996  0.1807345149999975   F   F   F
  0.8666666749999976  0.5333333609999968  0.1807345149999975   F   F   F
  0.8666666749999976  0.7333333489999987  0.1807345149999975   F   F   F
  0.8666666749999976  0.9333333370000005  0.1807345149999975   F   F   F
  0.1346238290322429  0.0664229088117582  0.2706255714111330   T   T   T
  0.1346377190724719  0.2675040516392732  0.2699540166905423   T   T   T
  0.1347659323037285  0.4686625964282085  0.2705690673281561   T   T   T
  0.1336520431804825  0.6671495520801405  0.2714912843917788   T   T   T
  0.1335767494048426  0.8669467143589695  0.2715085684575003   T   T   T
  0.3331645675968345  0.0660783277590431  0.2720659887576176   T   T   T
  0.3345994437813661  0.2673027258348382  0.2715398425483925   T   T   T
  0.3346346019337905  0.4675682231390153  0.2714782132311974   T   T   T
  0.3332030330571437  0.6674204719326693  0.2719274227167139   T   T   T
  0.3336533275225466  0.8670056207682767  0.2715767563678638   T   T   T
  0.5320298172039936  0.0664620561289058  0.2706934048970245   T   T   T
  0.5327716841635853  0.2673364290970685  0.2715582904364975   T   T   T
  0.5334303830028759  0.4667642964241819  0.2720007369215433   T   T   T
  0.5327449912381352  0.6654354248884302  0.2714764143668830   T   T   T
  0.5319924124042763  0.8656443701132256  0.2706663742145560   T   T   T
  0.7329168347291551  0.0665031625465549  0.2693623032036302   T   T   T
  0.7330747451260001  0.2675802967823268  0.2699473571725718   T   T   T
  0.7329801225699295  0.4675452589849953  0.2714799518301874   T   T   T
  0.7329299329291992  0.6654482786371355  0.2714374698418197   T   T   T
  0.7328461398551174  0.8654807959797872  0.2699647090520593   T   T   T
  0.9337167868725449  0.0664418262675559  0.2693546131828181   T   T   T
  0.9338946143632884  0.2676149320643788  0.2693534719760950   T   T   T
  0.9340437301654858  0.4686600502609097  0.2705900811314899   T   T   T
  0.9343299264288690  0.6672872205337833  0.2718983216613853   T   T   T
  0.9338418166897410  0.8656144457651417  0.2706070319800796   T   T   T
  0.9982069879902917  0.1993133241862707  0.3587204057487848   T   T   T
  0.9984845947074723  0.3968665537121537  0.3587237606398246   T   T   T
 -0.0000198079950766  0.5985699067003899  0.3637152445489290   T   T   T
  0.9994939402214522  0.8019451906345841  0.3637550720757658   T   T   T
  0.9982677855357518  0.0020567471045176  0.3587775379012936   T   T   T
  0.1970199180824732  0.1999384688133612  0.3595524257682126   T   T   T
  0.1969829362937910  0.3978685550860777  0.3595536462681777   T   T   T
  0.1987679574222328  0.5986476765139982  0.3636610532920106   T   T   T
  0.2005603140949436  0.8010064104253540  0.3608138697394818   T   T   T
  0.1983540279550248  0.0009797749429757  0.3638605123734868   T   T   T
  0.3999726078653668  0.1999373798125256  0.3635232339813853   T   T   T
  0.4006336135448355  0.4006609250475150  0.3635315641070435   T   T   T
  0.3999261667066334  0.6006667341700009  0.3633318886572343   T   T   T
  0.4026634029983633  0.8021092325718054  0.3639232872502833   T   T   T
  0.4027072062267834  0.0010705098435135  0.3640174450051782   T   T   T
  0.6030176675508314  0.2000067211342803  0.3595419610622579   T   T   T
  0.6003147676827362  0.4007001399089913  0.3635935335485416   T   T   T
  0.6000962390105671  0.6000186773958751  0.3635747434140792   T   T   T
  0.6028034846191761  0.8032066684634396  0.3595526242732289   T   T   T
  0.6039453865200849  0.0020915472730956  0.3588488965489163   T   T   T
  0.8012208151482622  0.1992801661358894  0.3587120436539504   T   T   T
  0.8009855027105361  0.3978268218172568  0.3595462944046139   T   T   T
  0.8008305626168883  0.6005411328743603  0.3633248885392056   T   T   T
  0.8006098802582594  0.8031663419471263  0.3595463341266101   T   T   T
  0.8011844921106990  0.0021888422475943  0.3586897494091452   T   T   T
  0.1346549359470244  0.0691059181192791  0.4756355467680774   T   T   T
  0.1344661724086528  0.2689336530140989  0.4833138154428753   T   T   T
  0.1346562043625924  0.4689251477183337  0.4754800352808037   T   T   T
  0.1346586861845141  0.6679518802642205  0.4577626707738311   T   T   T
  0.1346733502302086  0.8701359136970430  0.4578072605072656   T   T   T
  0.3367383447159149  0.0720688702618804  0.4587565119597741   T   T   T
  0.3312695005404227  0.2702376434361400  0.4633738695374295   T   T   T
  0.3312604054096355  0.4643485940042739  0.4631550770943688   T   T   T
  0.3367353137608338  0.6680762722091619  0.4584982293603195   T   T   T
  0.3368685116405410  0.8701646631374006  0.4577677456378917   T   T   T
  0.5358433050963095  0.0691213767521237  0.4757401027871556   T   T   T
  0.5403670537982698  0.2702506933507750  0.4635452634834360   T   T   T
  0.5403843101681354  0.6734706639141427  0.4631731634249879   T   T   T
  0.5358440263053377  0.8700935294718510  0.4755890422389949   T   T   T
  0.7347804350346184  0.0690657922125815  0.4913525599494782   T   T   T
  0.7358689935812671  0.2689399592149396  0.4834854163135298   T   T   T
  0.7344149624612561  0.4643276560396028  0.4633591333972294   T   T   T
  0.7344320143190776  0.6734308292557751  0.4631719644912701   T   T   T
  0.7358347953060881  0.8702835594438443  0.4833046399800865   T   T   T
  0.9356917453260549  0.0690708942200928  0.4913150689662312   T   T   T
  0.9357156949050085  0.2700089389347747  0.4913218226589630   T   T   T
  0.9356363600080185  0.4689318587879888  0.4755911509402139   T   T   T
  0.9326765138756621  0.6680373016644421  0.4585904773726786   T   T   T
  0.9356031453406899  0.8700757151400129  0.4755549486669908   T   T   T
  0.0022066237942375  0.0024952844201424  0.4828956362409194   T   T   T
  0.0021044763525921  0.2027410790451817  0.4911954441476564   T   T   T
  0.0022385055962682  0.4030925852681029  0.4828626405536718   T   T   T
  0.0002801826555217  0.6003638067025280  0.4617682834252577   T   T   T
  0.0002605652969618  0.8032765299959090  0.4617493572321492   T   T   T
  0.2014304450139029  0.0044157395804334  0.4618745310969463   T   T   T
  0.2000696398185391  0.2018848873994313  0.4757626098095286   T   T   T
  0.2000602214362443  0.4015372587263617  0.4756042295910297   T   T   T
  0.2014216143287831  0.6003646900838604  0.4616749217376993   T   T   T
  0.2020315982395127  0.8027093214412511  0.4546683839815236   T   T   T
  0.4043838446770534  0.0044516040194644  0.4619184699077512   T   T   T
  0.4042001153152479  0.2069982826371635  0.4591349900594236   T   T   T
  0.4042073372107681  0.6005112652346791  0.4588042413400445   T   T   T
  0.4043797075815774  0.8033063180110546  0.4617687314210948   T   T   T
  0.6016732193806206  0.0025050692076358  0.4829584042350268   T   T   T
  0.6031959510863611  0.2019000258068656  0.4759485972527358   T   T   T
  0.6031881329783374  0.8046265877534253  0.4756845951174795   T   T   T
  0.8020203528730844  0.0026404359343925  0.4911923840710543   T   T   T
  0.8020441942138606  0.2027407165623043  0.4912695739075503   T   T   T
  0.8028267127981540  0.4015551714793008  0.4758105460931117   T   T   T
  0.7976203736732357  0.6004529602001963  0.4588898293049600   T   T   T
  0.8027778566957074  0.8045960427470760  0.4756693662696431   T   T   T
  0.3925758800622897  0.3979063219316547  0.4578793492070841   T   T   T
  0.6066481110040529  0.3979059778770414  0.4580597776272982   T   T   T
  0.6066758373114820  0.6120337265199687  0.4577066339973435   T   T   T
  0.5351931924240803  0.4695814036311866  0.5332907502262855   T   T   T
  0.5365987383080522  0.4701445160463967  0.6384725649596485   T   T   T
 
  0.00000000E+00  0.00000000E+00  0.00000000E+00
  0.00000000E+00  0.00000000E+00  0.00000000E+00
  0.00000000E+00  0.00000000E+00  0.00000000E+00
  0.00000000E+00  0.00000000E+00  0.00000000E+00
  0.00000000E+00  0.00000000E+00  0.00000000E+00
  0.00000000E+00  0.00000000E+00  0.00000000E+00
  0.00000000E+00  0.00000000E+00  0.00000000E+00
  0.00000000E+00  0.00000000E+00  0.00000000E+00
  0.00000000E+00  0.00000000E+00  0.00000000E+00
  0.00000000E+00  0.00000000E+00  0.00000000E+00
  0.00000000E+00  0.00000000E+00  0.00000000E+00
  0.00000000E+00  0.00000000E+00  0.00000000E+00
  0.00000000E+00  0.00000000E+00  0.00000000E+00
  0.00000000E+00  0.00000000E+00  0.00000000E+00
  0.00000000E+00  0.00000000E+00  0.00000000E+00
  0.00000000E+00  0.00000000E+00  0.00000000E+00
  0.00000000E+00  0.00000000E+00  0.00000000E+00
  0.00000000E+00  0.00000000E+00  0.00000000E+00
  0.00000000E+00  0.00000000E+00  0.00000000E+00
  0.00000000E+00  0.00000000E+00  0.00000000E+00
  0.00000000E+00  0.00000000E+00  0.00000000E+00
  0.00000000E+00  0.00000000E+00  0.00000000E+00
  0.00000000E+00  0.00000000E+00  0.00000000E+00
  0.00000000E+00  0.00000000E+00  0.00000000E+00
  0.00000000E+00  0.00000000E+00  0.00000000E+00
  0.00000000E+00  0.00000000E+00  0.00000000E+00
  0.00000000E+00  0.00000000E+00  0.00000000E+00
  0.00000000E+00  0.00000000E+00  0.00000000E+00
  0.00000000E+00  0.00000000E+00  0.00000000E+00
  0.00000000E+00  0.00000000E+00  0.00000000E+00
  0.00000000E+00  0.00000000E+00  0.00000000E+00
  0.00000000E+00  0.00000000E+00  0.00000000E+00
  0.00000000E+00  0.00000000E+00  0.00000000E+00
  0.00000000E+00  0.00000000E+00  0.00000000E+00
  0.00000000E+00  0.00000000E+00  0.00000000E+00
  0.00000000E+00  0.00000000E+00  0.00000000E+00
  0.00000000E+00  0.00000000E+00  0.00000000E+00
  0.00000000E+00  0.00000000E+00  0.00000000E+00
  0.00000000E+00  0.00000000E+00  0.00000000E+00
  0.00000000E+00  0.00000000E+00  0.00000000E+00
  0.00000000E+00  0.00000000E+00  0.00000000E+00
  0.00000000E+00  0.00000000E+00  0.00000000E+00
  0.00000000E+00  0.00000000E+00  0.00000000E+00
  0.00000000E+00  0.00000000E+00  0.00000000E+00
  0.00000000E+00  0.00000000E+00  0.00000000E+00
  0.00000000E+00  0.00000000E+00  0.00000000E+00
  0.00000000E+00  0.00000000E+00  0.00000000E+00
  0.00000000E+00  0.00000000E+00  0.00000000E+00
  0.00000000E+00  0.00000000E+00  0.00000000E+00
  0.00000000E+00  0.00000000E+00  0.00000000E+00
  0.00000000E+00  0.00000000E+00  0.00000000E+00
  0.00000000E+00  0.00000000E+00  0.00000000E+00
  0.00000000E+00  0.00000000E+00  0.00000000E+00
  0.00000000E+00  0.00000000E+00  0.00000000E+00
  0.00000000E+00  0.00000000E+00  0.00000000E+00
  0.00000000E+00  0.00000000E+00  0.00000000E+00
  0.00000000E+00  0.00000000E+00  0.00000000E+00
  0.00000000E+00  0.00000000E+00  0.00000000E+00
  0.00000000E+00  0.00000000E+00  0.00000000E+00
  0.00000000E+00  0.00000000E+00  0.00000000E+00
  0.00000000E+00  0.00000000E+00  0.00000000E+00
  0.00000000E+00  0.00000000E+00  0.00000000E+00
  0.00000000E+00  0.00000000E+00  0.00000000E+00
  0.00000000E+00  0.00000000E+00  0.00000000E+00
  0.00000000E+00  0.00000000E+00  0.00000000E+00
  0.00000000E+00  0.00000000E+00  0.00000000E+00
  0.00000000E+00  0.00000000E+00  0.00000000E+00
  0.00000000E+00  0.00000000E+00  0.00000000E+00
  0.00000000E+00  0.00000000E+00  0.00000000E+00
  0.00000000E+00  0.00000000E+00  0.00000000E+00
  0.00000000E+00  0.00000000E+00  0.00000000E+00
  0.00000000E+00  0.00000000E+00  0.00000000E+00
  0.00000000E+00  0.00000000E+00  0.00000000E+00
  0.00000000E+00  0.00000000E+00  0.00000000E+00
  0.00000000E+00  0.00000000E+00  0.00000000E+00
  0.00000000E+00  0.00000000E+00  0.00000000E+00
  0.00000000E+00  0.00000000E+00  0.00000000E+00
  0.00000000E+00  0.00000000E+00  0.00000000E+00
  0.00000000E+00  0.00000000E+00  0.00000000E+00
  0.00000000E+00  0.00000000E+00  0.00000000E+00
  0.00000000E+00  0.00000000E+00  0.00000000E+00
  0.00000000E+00  0.00000000E+00  0.00000000E+00
  0.00000000E+00  0.00000000E+00  0.00000000E+00
  0.00000000E+00  0.00000000E+00  0.00000000E+00
  0.00000000E+00  0.00000000E+00  0.00000000E+00
  0.00000000E+00  0.00000000E+00  0.00000000E+00
  0.00000000E+00  0.00000000E+00  0.00000000E+00
  0.00000000E+00  0.00000000E+00  0.00000000E+00
  0.00000000E+00  0.00000000E+00  0.00000000E+00
  0.00000000E+00  0.00000000E+00  0.00000000E+00
  0.00000000E+00  0.00000000E+00  0.00000000E+00
  0.00000000E+00  0.00000000E+00  0.00000000E+00
  0.00000000E+00  0.00000000E+00  0.00000000E+00
  0.00000000E+00  0.00000000E+00  0.00000000E+00
  0.00000000E+00  0.00000000E+00  0.00000000E+00
  0.00000000E+00  0.00000000E+00  0.00000000E+00
  0.00000000E+00  0.00000000E+00  0.00000000E+00
  0.00000000E+00  0.00000000E+00  0.00000000E+00
  0.00000000E+00  0.00000000E+00  0.00000000E+00
  0.00000000E+00  0.00000000E+00  0.00000000E+00
  0.00000000E+00  0.00000000E+00  0.00000000E+00
  0.00000000E+00  0.00000000E+00  0.00000000E+00
  0.00000000E+00  0.00000000E+00  0.00000000E+00
  0.00000000E+00  0.00000000E+00  0.00000000E+00
  0.00000000E+00  0.00000000E+00  0.00000000E+00
  0.00000000E+00  0.00000000E+00  0.00000000E+00
  0.00000000E+00  0.00000000E+00  0.00000000E+00
  0.00000000E+00  0.00000000E+00  0.00000000E+00
  0.00000000E+00  0.00000000E+00  0.00000000E+00
  0.00000000E+00  0.00000000E+00  0.00000000E+00
  0.00000000E+00  0.00000000E+00  0.00000000E+00
  0.00000000E+00  0.00000000E+00  0.00000000E+00
  0.00000000E+00  0.00000000E+00  0.00000000E+00
  0.00000000E+00  0.00000000E+00  0.00000000E+00
  0.00000000E+00  0.00000000E+00  0.00000000E+00
  0.00000000E+00  0.00000000E+00  0.00000000E+00
  0.00000000E+00  0.00000000E+00  0.00000000E+00
  0.00000000E+00  0.00000000E+00  0.00000000E+00
  0.00000000E+00  0.00000000E+00  0.00000000E+00
  0.00000000E+00  0.00000000E+00  0.00000000E+00
  0.00000000E+00  0.00000000E+00  0.00000000E+00
  0.00000000E+00  0.00000000E+00  0.00000000E+00
  0.00000000E+00  0.00000000E+00  0.00000000E+00
  0.00000000E+00  0.00000000E+00  0.00000000E+00
  0.00000000E+00  0.00000000E+00  0.00000000E+00
  0.00000000E+00  0.00000000E+00  0.00000000E+00
  0.00000000E+00  0.00000000E+00  0.00000000E+00
  0.00000000E+00  0.00000000E+00  0.00000000E+00
  0.00000000E+00  0.00000000E+00  0.00000000E+00
  0.00000000E+00  0.00000000E+00  0.00000000E+00
  0.00000000E+00  0.00000000E+00  0.00000000E+00
  0.00000000E+00  0.00000000E+00  0.00000000E+00
  0.00000000E+00  0.00000000E+00  0.00000000E+00
  0.00000000E+00  0.00000000E+00  0.00000000E+00
  0.00000000E+00  0.00000000E+00  0.00000000E+00
  0.00000000E+00  0.00000000E+00  0.00000000E+00
  0.00000000E+00  0.00000000E+00  0.00000000E+00
  0.00000000E+00  0.00000000E+00  0.00000000E+00
  0.00000000E+00  0.00000000E+00  0.00000000E+00
  0.00000000E+00  0.00000000E+00  0.00000000E+00
  0.00000000E+00  0.00000000E+00  0.00000000E+00
  0.00000000E+00  0.00000000E+00  0.00000000E+00
  0.00000000E+00  0.00000000E+00  0.00000000E+00
  0.00000000E+00  0.00000000E+00  0.00000000E+00
  0.00000000E+00  0.00000000E+00  0.00000000E+00
  0.00000000E+00  0.00000000E+00  0.00000000E+00
  0.00000000E+00  0.00000000E+00  0.00000000E+00
  0.00000000E+00  0.00000000E+00  0.00000000E+00
  0.00000000E+00  0.00000000E+00  0.00000000E+00
  0.00000000E+00  0.00000000E+00  0.00000000E+00
  0.00000000E+00  0.00000000E+00  0.00000000E+00
