Ir(111) surface                         
   1.00000000000000     
    13.6036739348999998    0.0000000000000000    0.0000000000000000
    -6.8018385362000000   11.7811263066999992    0.0000000000000000
     0.0000000000000000    0.0000000000000000   24.3532371521000002
   Ir   C    N    Pd   Os
   100    46     3     1     1
Selective dynamics
Direct
  0.0000000000000000  0.0000000000000000  0.0895158200000026   F   F   F
  0.0000000000000000  0.2000000029999995  0.0895158200000026   F   F   F
  0.0000000000000000  0.4000000059999991  0.0895158200000026   F   F   F
  0.0000000000000000  0.6000000240000034  0.0895158200000026   F   F   F
  0.0000000000000000  0.8000000119999982  0.0895158200000026   F   F   F
  0.2000000029999995  0.0000000000000000  0.0895158200000026   F   F   F
  0.2000000029999995  0.2000000029999995  0.0895158200000026   F   F   F
  0.2000000029999995  0.4000000059999991  0.0895158200000026   F   F   F
  0.2000000029999995  0.6000000240000034  0.0895158200000026   F   F   F
  0.2000000029999995  0.8000000119999982  0.0895158200000026   F   F   F
  0.4000000059999991  0.0000000000000000  0.0895158200000026   F   F   F
  0.4000000059999991  0.2000000029999995  0.0895158200000026   F   F   F
  0.4000000059999991  0.4000000059999991  0.0895158200000026   F   F   F
  0.4000000059999991  0.6000000240000034  0.0895158200000026   F   F   F
  0.4000000059999991  0.8000000119999982  0.0895158200000026   F   F   F
  0.6000000240000034  0.0000000000000000  0.0895158200000026   F   F   F
  0.6000000240000034  0.2000000029999995  0.0895158200000026   F   F   F
  0.6000000240000034  0.4000000059999991  0.0895158200000026   F   F   F
  0.6000000240000034  0.6000000240000034  0.0895158200000026   F   F   F
  0.6000000240000034  0.8000000119999982  0.0895158200000026   F   F   F
  0.8000000119999982  0.0000000000000000  0.0895158200000026   F   F   F
  0.8000000119999982  0.2000000029999995  0.0895158200000026   F   F   F
  0.8000000119999982  0.4000000059999991  0.0895158200000026   F   F   F
  0.8000000119999982  0.6000000240000034  0.0895158200000026   F   F   F
  0.8000000119999982  0.8000000119999982  0.0895158200000026   F   F   F
  0.0666666699999965  0.1333333400000001  0.1807345149999975   F   F   F
  0.0666666699999965  0.3333333429999996  0.1807345149999975   F   F   F
  0.0666666699999965  0.5333333609999968  0.1807345149999975   F   F   F
  0.0666666699999965  0.7333333489999987  0.1807345149999975   F   F   F
  0.0666666699999965  0.9333333370000005  0.1807345149999975   F   F   F
  0.2666666809999967  0.1333333400000001  0.1807345149999975   F   F   F
  0.2666666809999967  0.3333333429999996  0.1807345149999975   F   F   F
  0.2666666809999967  0.5333333609999968  0.1807345149999975   F   F   F
  0.2666666809999967  0.7333333489999987  0.1807345149999975   F   F   F
  0.2666666809999967  0.9333333370000005  0.1807345149999975   F   F   F
  0.4666666689999985  0.1333333400000001  0.1807345149999975   F   F   F
  0.4666666689999985  0.3333333429999996  0.1807345149999975   F   F   F
  0.4666666689999985  0.5333333609999968  0.1807345149999975   F   F   F
  0.4666666689999985  0.7333333489999987  0.1807345149999975   F   F   F
  0.4666666689999985  0.9333333370000005  0.1807345149999975   F   F   F
  0.6666666870000029  0.1333333400000001  0.1807345149999975   F   F   F
  0.6666666870000029  0.3333333429999996  0.1807345149999975   F   F   F
  0.6666666870000029  0.5333333609999968  0.1807345149999975   F   F   F
  0.6666666870000029  0.7333333489999987  0.1807345149999975   F   F   F
  0.6666666870000029  0.9333333370000005  0.1807345149999975   F   F   F
  0.8666666749999976  0.1333333400000001  0.1807345149999975   F   F   F
  0.8666666749999976  0.3333333429999996  0.1807345149999975   F   F   F
  0.8666666749999976  0.5333333609999968  0.1807345149999975   F   F   F
  0.8666666749999976  0.7333333489999987  0.1807345149999975   F   F   F
  0.8666666749999976  0.9333333370000005  0.1807345149999975   F   F   F
  0.1333260856336901  0.0663404224438756  0.2708831849295603   T   T   T
  0.1331455005553830  0.2660253616812560  0.2709773690534375   T   T   T
  0.1342558213014883  0.4661509767614831  0.2717354893665246   T   T   T
  0.1335755326128376  0.6664101017105468  0.2710921391383253   T   T   T
  0.1333341627161322  0.8664537350824001  0.2710554506693587   T   T   T
  0.3329590904698402  0.0658292113261355  0.2704891482917842   T   T   T
  0.3334369717259167  0.2659208205576812  0.2705169290101473   T   T   T
  0.3341758577250439  0.4657977433035130  0.2719645877565812   T   T   T
  0.3338342776482998  0.6657135657574351  0.2717434068802344   T   T   T
  0.3332487399623369  0.8661091027517643  0.2708370430651911   T   T   T
  0.5334181790164403  0.0663480790217956  0.2706196563599218   T   T   T
  0.5336434804736317  0.2663375550236328  0.2706100564836121   T   T   T
  0.5340577206131719  0.4665455821050817  0.2705181422080142   T   T   T
  0.5339490640223898  0.6668276504702694  0.2709861020143783   T   T   T
  0.5334213935673892  0.8664056759577903  0.2707831115106180   T   T   T
  0.7335024110349134  0.0664726668718627  0.2706350690406364   T   T   T
  0.7336268456237606  0.2665586549950365  0.2706183680145643   T   T   T
  0.7341484985523489  0.4670207744860479  0.2704875621845055   T   T   T
  0.7336388606734281  0.6666559998392807  0.2708851796941020   T   T   T
  0.7333892911771195  0.8663759220632141  0.2707597304826528   T   T   T
  0.9335940562278430  0.0665753550313877  0.2707566475675555   T   T   T
  0.9335698360720969  0.2665555209418816  0.2707785592711599   T   T   T
  0.9338689050080953  0.4667326200652588  0.2708345111957862   T   T   T
  0.9335242962554373  0.6666448312095020  0.2710539684415204   T   T   T
  0.9333966931297625  0.8665786304872923  0.2710306894063353   T   T   T
  0.0014468812761724  0.9985866372581637  0.3642917170559078   T   T   T
  0.0006709545587050  0.1983794452442050  0.3635889210104835   T   T   T
  0.0009983077064351  0.3987206113084800  0.3638915798949539   T   T   T
  0.0012652845584863  0.5987272534959658  0.3644403103482385   T   T   T
  0.0012299915489269  0.7987284187565502  0.3644704577991056   T   T   T
  0.2014870674427741  0.9994321296166928  0.3644973264151877   T   T   T
  0.2023488298030698  0.2000338391259591  0.3660585715908217   T   T   T
  0.2045953124508219  0.3986817295968925  0.3655303953085017   T   T   T
  0.2021099422694650  0.5978612227501413  0.3656612846706606   T   T   T
  0.2012358044101365  0.7986918272269595  0.3644425604058517   T   T   T
  0.4009624911344463  0.9984092326198951  0.3638378426561849   T   T   T
  0.4017984649844034  0.1984393123666349  0.3634048197325250   T   T   T
  0.4035019754601586  0.3964707208751808  0.3611873359281064   T   T   T
  0.4012633451080329  0.5953472681576228  0.3655706587521340   T   T   T
  0.4012419122106481  0.7989480152363156  0.3639026347786133   T   T   T
  0.6010701438872094  0.9989504625324335  0.3637678905714524   T   T   T
  0.6013854114257322  0.1985704814860955  0.3632460787516026   T   T   T
  0.6015351490366586  0.3981647616388098  0.3634008125732009   T   T   T
  0.5999075226846328  0.5975995227998676  0.3660743488922855   T   T   T
  0.6015674869119272  0.7992640329955417  0.3636027999362104   T   T   T
  0.8011407032607588  0.9988054380296195  0.3639215777441051   T   T   T
  0.8009998484844405  0.1988853146774742  0.3637645546112555   T   T   T
  0.8015465765334391  0.3989971523811568  0.3638352574057512   T   T   T
  0.8005226321722390  0.5984750597912284  0.3644990333899343   T   T   T
  0.8013622937165920  0.7985041559447427  0.3642971326955005   T   T   T
  0.9672876422954181  0.0298723840008527  0.4481778315431075   T   T   T
  0.9649075594236732  0.2285531541604814  0.4481117717518323   T   T   T
  0.9666414918324705  0.4299502857163441  0.4481151950490980   T   T   T
  0.9686022131151076  0.6306049677416313  0.4483745740615789   T   T   T
  0.9690777950231804  0.8308735283407265  0.4482839798642581   T   T   T
  0.1703157506991523  0.0327305826484489  0.4483693312177051   T   T   T
  0.1605914118323437  0.2294098881299739  0.4473972065757710   T   T   T
  0.1592437892969447  0.4227593127241236  0.4474603704350185   T   T   T
  0.1692247526159414  0.6307100667726862  0.4487137751148233   T   T   T
  0.1693448820619295  0.8313426697513461  0.4483777721847270   T   T   T
  0.3700154901983096  0.0309914041674962  0.4480832108986709   T   T   T
  0.3770163362751484  0.2330781663660124  0.4480043170660812   T   T   T
  0.3771760493850005  0.6406124433335922  0.4474963938097056   T   T   T
  0.3699922288475290  0.8332772380894331  0.4481240134552999   T   T   T
  0.5697558863152277  0.0313736647090053  0.4478500771926581   T   T   T
  0.5705930823734837  0.2293555985124533  0.4478350981644852   T   T   T
  0.5668908611705752  0.4229569118464807  0.4480191520177176   T   T   T
  0.5704796037824580  0.6392845398413247  0.4474464121260542   T   T   T
  0.5713760220005857  0.8350032403029198  0.4481280725509651   T   T   T
  0.7688965664555627  0.0310333630224046  0.4479207242651641   T   T   T
  0.7685584497642217  0.2301833564004135  0.4478459759740999   T   T   T
  0.7689536116158733  0.4299381227782171  0.4480828034070427   T   T   T
  0.7672173688338866  0.6296368135283265  0.4483708749927906   T   T   T
  0.7700507248406827  0.8326355459924847  0.4481844581446547   T   T   T
  0.0288683593063501  0.1627216162197518  0.4480560152704717   T   T   T
  0.0281749911194487  0.3629605549497480  0.4479966505559974   T   T   T
  0.0333090793097693  0.5654793722147874  0.4482925726559751   T   T   T
  0.0340040470418925  0.7659448667993860  0.4482557269364337   T   T   T
  0.0341088395378732  0.9664346457568314  0.4480629681312956   T   T   T
  0.2356056716549036  0.1697033519514027  0.4478395657799213   T   T   T
  0.2343458202163020  0.5655685353664049  0.4484227168068641   T   T   T
  0.2344656403476299  0.7666281619354670  0.4482971099443357   T   T   T
  0.2347594213419300  0.9668773396996636  0.4482035538720233   T   T   T
  0.4364654814940293  0.1646544262638408  0.4478579113139564   T   T   T
  0.4369704652840821  0.7717182308213800  0.4480069628134039   T   T   T
  0.4346624763529977  0.9666329279880820  0.4479722920530517   T   T   T
  0.6347051728789673  0.1652269142161036  0.4477891891543073   T   T   T
  0.6353001266332431  0.3634934504557304  0.4478580825780197   T   T   T
  0.6302476869642571  0.5643388877957023  0.4478576820898433   T   T   T
  0.6371906067211821  0.7710357349351405  0.4480745246442651   T   T   T
  0.6351406322871939  0.9673178538405427  0.4479022748854015   T   T   T
  0.8326068556266433  0.1647915657664122  0.4478945356016493   T   T   T
  0.8332992635255970  0.3652822300640103  0.4479687174568578   T   T   T
  0.8330702962522410  0.5651927337468903  0.4482006666377230   T   T   T
  0.8335129700819492  0.7658399403943555  0.4480660487971735   T   T   T
  0.8340338991597911  0.9658890125855272  0.4479737519115816   T   T   T
  0.2140095276896929  0.3565265119343643  0.4522724506969669   T   T   T
  0.4419994021992979  0.3580025605186742  0.4518149533869515   T   T   T
  0.4433784194516869  0.5857912379529042  0.4523865851529477   T   T   T
  0.3668987875669884  0.4319738886004872  0.5089993933739274   T   T   T
  0.3615797107283562  0.4294952976032384  0.6041640149635793   T   T   T
 
  0.00000000E+00  0.00000000E+00  0.00000000E+00
  0.00000000E+00  0.00000000E+00  0.00000000E+00
  0.00000000E+00  0.00000000E+00  0.00000000E+00
  0.00000000E+00  0.00000000E+00  0.00000000E+00
  0.00000000E+00  0.00000000E+00  0.00000000E+00
  0.00000000E+00  0.00000000E+00  0.00000000E+00
  0.00000000E+00  0.00000000E+00  0.00000000E+00
  0.00000000E+00  0.00000000E+00  0.00000000E+00
  0.00000000E+00  0.00000000E+00  0.00000000E+00
  0.00000000E+00  0.00000000E+00  0.00000000E+00
  0.00000000E+00  0.00000000E+00  0.00000000E+00
  0.00000000E+00  0.00000000E+00  0.00000000E+00
  0.00000000E+00  0.00000000E+00  0.00000000E+00
  0.00000000E+00  0.00000000E+00  0.00000000E+00
  0.00000000E+00  0.00000000E+00  0.00000000E+00
  0.00000000E+00  0.00000000E+00  0.00000000E+00
  0.00000000E+00  0.00000000E+00  0.00000000E+00
  0.00000000E+00  0.00000000E+00  0.00000000E+00
  0.00000000E+00  0.00000000E+00  0.00000000E+00
  0.00000000E+00  0.00000000E+00  0.00000000E+00
  0.00000000E+00  0.00000000E+00  0.00000000E+00
  0.00000000E+00  0.00000000E+00  0.00000000E+00
  0.00000000E+00  0.00000000E+00  0.00000000E+00
  0.00000000E+00  0.00000000E+00  0.00000000E+00
  0.00000000E+00  0.00000000E+00  0.00000000E+00
  0.00000000E+00  0.00000000E+00  0.00000000E+00
  0.00000000E+00  0.00000000E+00  0.00000000E+00
  0.00000000E+00  0.00000000E+00  0.00000000E+00
  0.00000000E+00  0.00000000E+00  0.00000000E+00
  0.00000000E+00  0.00000000E+00  0.00000000E+00
  0.00000000E+00  0.00000000E+00  0.00000000E+00
  0.00000000E+00  0.00000000E+00  0.00000000E+00
  0.00000000E+00  0.00000000E+00  0.00000000E+00
  0.00000000E+00  0.00000000E+00  0.00000000E+00
  0.00000000E+00  0.00000000E+00  0.00000000E+00
  0.00000000E+00  0.00000000E+00  0.00000000E+00
  0.00000000E+00  0.00000000E+00  0.00000000E+00
  0.00000000E+00  0.00000000E+00  0.00000000E+00
  0.00000000E+00  0.00000000E+00  0.00000000E+00
  0.00000000E+00  0.00000000E+00  0.00000000E+00
  0.00000000E+00  0.00000000E+00  0.00000000E+00
  0.00000000E+00  0.00000000E+00  0.00000000E+00
  0.00000000E+00  0.00000000E+00  0.00000000E+00
  0.00000000E+00  0.00000000E+00  0.00000000E+00
  0.00000000E+00  0.00000000E+00  0.00000000E+00
  0.00000000E+00  0.00000000E+00  0.00000000E+00
  0.00000000E+00  0.00000000E+00  0.00000000E+00
  0.00000000E+00  0.00000000E+00  0.00000000E+00
  0.00000000E+00  0.00000000E+00  0.00000000E+00
  0.00000000E+00  0.00000000E+00  0.00000000E+00
  0.00000000E+00  0.00000000E+00  0.00000000E+00
  0.00000000E+00  0.00000000E+00  0.00000000E+00
  0.00000000E+00  0.00000000E+00  0.00000000E+00
  0.00000000E+00  0.00000000E+00  0.00000000E+00
  0.00000000E+00  0.00000000E+00  0.00000000E+00
  0.00000000E+00  0.00000000E+00  0.00000000E+00
  0.00000000E+00  0.00000000E+00  0.00000000E+00
  0.00000000E+00  0.00000000E+00  0.00000000E+00
  0.00000000E+00  0.00000000E+00  0.00000000E+00
  0.00000000E+00  0.00000000E+00  0.00000000E+00
  0.00000000E+00  0.00000000E+00  0.00000000E+00
  0.00000000E+00  0.00000000E+00  0.00000000E+00
  0.00000000E+00  0.00000000E+00  0.00000000E+00
  0.00000000E+00  0.00000000E+00  0.00000000E+00
  0.00000000E+00  0.00000000E+00  0.00000000E+00
  0.00000000E+00  0.00000000E+00  0.00000000E+00
  0.00000000E+00  0.00000000E+00  0.00000000E+00
  0.00000000E+00  0.00000000E+00  0.00000000E+00
  0.00000000E+00  0.00000000E+00  0.00000000E+00
  0.00000000E+00  0.00000000E+00  0.00000000E+00
  0.00000000E+00  0.00000000E+00  0.00000000E+00
  0.00000000E+00  0.00000000E+00  0.00000000E+00
  0.00000000E+00  0.00000000E+00  0.00000000E+00
  0.00000000E+00  0.00000000E+00  0.00000000E+00
  0.00000000E+00  0.00000000E+00  0.00000000E+00
  0.00000000E+00  0.00000000E+00  0.00000000E+00
  0.00000000E+00  0.00000000E+00  0.00000000E+00
  0.00000000E+00  0.00000000E+00  0.00000000E+00
  0.00000000E+00  0.00000000E+00  0.00000000E+00
  0.00000000E+00  0.00000000E+00  0.00000000E+00
  0.00000000E+00  0.00000000E+00  0.00000000E+00
  0.00000000E+00  0.00000000E+00  0.00000000E+00
  0.00000000E+00  0.00000000E+00  0.00000000E+00
  0.00000000E+00  0.00000000E+00  0.00000000E+00
  0.00000000E+00  0.00000000E+00  0.00000000E+00
  0.00000000E+00  0.00000000E+00  0.00000000E+00
  0.00000000E+00  0.00000000E+00  0.00000000E+00
  0.00000000E+00  0.00000000E+00  0.00000000E+00
  0.00000000E+00  0.00000000E+00  0.00000000E+00
  0.00000000E+00  0.00000000E+00  0.00000000E+00
  0.00000000E+00  0.00000000E+00  0.00000000E+00
  0.00000000E+00  0.00000000E+00  0.00000000E+00
  0.00000000E+00  0.00000000E+00  0.00000000E+00
  0.00000000E+00  0.00000000E+00  0.00000000E+00
  0.00000000E+00  0.00000000E+00  0.00000000E+00
  0.00000000E+00  0.00000000E+00  0.00000000E+00
  0.00000000E+00  0.00000000E+00  0.00000000E+00
  0.00000000E+00  0.00000000E+00  0.00000000E+00
  0.00000000E+00  0.00000000E+00  0.00000000E+00
  0.00000000E+00  0.00000000E+00  0.00000000E+00
  0.00000000E+00  0.00000000E+00  0.00000000E+00
  0.00000000E+00  0.00000000E+00  0.00000000E+00
  0.00000000E+00  0.00000000E+00  0.00000000E+00
  0.00000000E+00  0.00000000E+00  0.00000000E+00
  0.00000000E+00  0.00000000E+00  0.00000000E+00
  0.00000000E+00  0.00000000E+00  0.00000000E+00
  0.00000000E+00  0.00000000E+00  0.00000000E+00
  0.00000000E+00  0.00000000E+00  0.00000000E+00
  0.00000000E+00  0.00000000E+00  0.00000000E+00
  0.00000000E+00  0.00000000E+00  0.00000000E+00
  0.00000000E+00  0.00000000E+00  0.00000000E+00
  0.00000000E+00  0.00000000E+00  0.00000000E+00
  0.00000000E+00  0.00000000E+00  0.00000000E+00
  0.00000000E+00  0.00000000E+00  0.00000000E+00
  0.00000000E+00  0.00000000E+00  0.00000000E+00
  0.00000000E+00  0.00000000E+00  0.00000000E+00
  0.00000000E+00  0.00000000E+00  0.00000000E+00
  0.00000000E+00  0.00000000E+00  0.00000000E+00
  0.00000000E+00  0.00000000E+00  0.00000000E+00
  0.00000000E+00  0.00000000E+00  0.00000000E+00
  0.00000000E+00  0.00000000E+00  0.00000000E+00
  0.00000000E+00  0.00000000E+00  0.00000000E+00
  0.00000000E+00  0.00000000E+00  0.00000000E+00
  0.00000000E+00  0.00000000E+00  0.00000000E+00
  0.00000000E+00  0.00000000E+00  0.00000000E+00
  0.00000000E+00  0.00000000E+00  0.00000000E+00
  0.00000000E+00  0.00000000E+00  0.00000000E+00
  0.00000000E+00  0.00000000E+00  0.00000000E+00
  0.00000000E+00  0.00000000E+00  0.00000000E+00
  0.00000000E+00  0.00000000E+00  0.00000000E+00
  0.00000000E+00  0.00000000E+00  0.00000000E+00
  0.00000000E+00  0.00000000E+00  0.00000000E+00
  0.00000000E+00  0.00000000E+00  0.00000000E+00
  0.00000000E+00  0.00000000E+00  0.00000000E+00
  0.00000000E+00  0.00000000E+00  0.00000000E+00
  0.00000000E+00  0.00000000E+00  0.00000000E+00
  0.00000000E+00  0.00000000E+00  0.00000000E+00
  0.00000000E+00  0.00000000E+00  0.00000000E+00
  0.00000000E+00  0.00000000E+00  0.00000000E+00
  0.00000000E+00  0.00000000E+00  0.00000000E+00
  0.00000000E+00  0.00000000E+00  0.00000000E+00
  0.00000000E+00  0.00000000E+00  0.00000000E+00
  0.00000000E+00  0.00000000E+00  0.00000000E+00
  0.00000000E+00  0.00000000E+00  0.00000000E+00
  0.00000000E+00  0.00000000E+00  0.00000000E+00
  0.00000000E+00  0.00000000E+00  0.00000000E+00
  0.00000000E+00  0.00000000E+00  0.00000000E+00
  0.00000000E+00  0.00000000E+00  0.00000000E+00
  0.00000000E+00  0.00000000E+00  0.00000000E+00
  0.00000000E+00  0.00000000E+00  0.00000000E+00
  0.00000000E+00  0.00000000E+00  0.00000000E+00
