Mg0(001) bulk                           
   1.00000000000000     
    17.1110649109000015    0.0000000000000000    0.0000000000000000
     0.0000000000000000    8.5555324553999998    0.0000000000000000
     0.0000000000000000    0.0000000000000000   22.3424186706999990
   Mg   O    C    N    Pd   Os
    64    64    52     3     1     1
Selective dynamics
Direct
  0.0000000000000000  0.0000000000000000  0.0500000010000008   F   F   F
  0.0000000000000000  0.5000000000000000  0.0500000010000008   F   F   F
  0.2500000000000000  0.0000000000000000  0.0500000010000008   F   F   F
  0.2500000000000000  0.5000000000000000  0.0500000010000008   F   F   F
  0.5000000000000000  0.0000000000000000  0.0500000010000008   F   F   F
  0.5000000000000000  0.5000000000000000  0.0500000010000008   F   F   F
  0.7500000000000000  0.0000000000000000  0.0500000010000008   F   F   F
  0.7500000000000000  0.5000000000000000  0.0500000010000008   F   F   F
  0.1250000000000000  0.2500000000000000  0.0500000010000008   F   F   F
  0.1250000000000000  0.7500000000000000  0.0500000010000008   F   F   F
  0.3750000000000000  0.2500000000000000  0.0500000010000008   F   F   F
  0.3750000000000000  0.7500000000000000  0.0500000010000008   F   F   F
  0.6250000000000000  0.2500000000000000  0.0500000010000008   F   F   F
  0.6250000000000000  0.7500000000000000  0.0500000010000008   F   F   F
  0.8750000000000000  0.2500000000000000  0.0500000010000008   F   F   F
  0.8750000000000000  0.7500000000000000  0.0500000010000008   F   F   F
  0.0000000000000000  0.2500000000000000  0.1457319410000011   F   F   F
  0.0000000000000000  0.7500000000000000  0.1457319410000011   F   F   F
  0.2500000000000000  0.2500000000000000  0.1457319410000011   F   F   F
  0.2500000000000000  0.7500000000000000  0.1457319410000011   F   F   F
  0.5000000000000000  0.2500000000000000  0.1457319410000011   F   F   F
  0.5000000000000000  0.7500000000000000  0.1457319410000011   F   F   F
  0.7500000000000000  0.2500000000000000  0.1457319410000011   F   F   F
  0.7500000000000000  0.7500000000000000  0.1457319410000011   F   F   F
  0.1250000000000000  0.0000000000000000  0.1457319410000011   F   F   F
  0.1250000000000000  0.5000000000000000  0.1457319410000011   F   F   F
  0.3750000000000000  0.0000000000000000  0.1457319410000011   F   F   F
  0.3750000000000000  0.5000000000000000  0.1457319410000011   F   F   F
  0.6250000000000000  0.0000000000000000  0.1457319410000011   F   F   F
  0.6250000000000000  0.5000000000000000  0.1457319410000011   F   F   F
  0.8750000000000000  0.0000000000000000  0.1457319410000011   F   F   F
  0.8750000000000000  0.5000000000000000  0.1457319410000011   F   F   F
 -0.0000073639480213  0.0000107662772882  0.2390884819540893   T   T   T
 -0.0000074019208464  0.4999876318111446  0.2390778796522267   T   T   T
  0.2500613371615895  0.0001331978946688  0.2391806055970730   T   T   T
  0.2500533650503680  0.5000131089473391  0.2391599961678387   T   T   T
  0.5000347477197501  0.0004008044503126  0.2395228609783250   T   T   T
  0.4999989559805379  0.4999430561818452  0.2393654379967328   T   T   T
  0.7499626693290687  0.0000856856634393  0.2392141534522656   T   T   T
  0.7499399112373222  0.4999612237352759  0.2392190872709925   T   T   T
  0.1250588271344147  0.2500097742433315  0.2391245716842016   T   T   T
  0.1250386454618106  0.7500571709740264  0.2391063532922175   T   T   T
  0.3751847617445274  0.2500349181453496  0.2394008095469979   T   T   T
  0.3751002765168767  0.7501304852351861  0.2393188119221620   T   T   T
  0.6248540375770728  0.2500242627061829  0.2394040215053906   T   T   T
  0.6248992678464040  0.7500499809572505  0.2393433533118449   T   T   T
  0.8749574557014369  0.2500147646770534  0.2391436472043943   T   T   T
  0.8749807886064622  0.7500401962845908  0.2391260277123907   T   T   T
  0.9999432741850770  0.2498958873097860  0.3310954325347197   T   T   T
  0.9999448680270117  0.7499218790010947  0.3310874732921723   T   T   T
  0.2498843342543057  0.2500068165993112  0.3315305543383743   T   T   T
  0.2498492297212973  0.7500957566945198  0.3313741873550050   T   T   T
  0.5001387184333039  0.2509510888781544  0.3328233851405204   T   T   T
  0.5000575479600528  0.7498515225335286  0.3319961326050238   T   T   T
  0.7501480148502372  0.2499154663188138  0.3314684874180706   T   T   T
  0.7501936677947658  0.7499826466743484  0.3313024416429752   T   T   T
  0.1251046741063932 -0.0000346778613438  0.3312409122969254   T   T   T
  0.1250940957101068  0.4999578794417214  0.3311818722557360   T   T   T
  0.3749280866134603  0.0002269215940921  0.3316334848096635   T   T   T
  0.3749776876384375  0.4999748697929030  0.3314067617922938   T   T   T
  0.6250058392517435  0.0001215516166138  0.3317564147226018   T   T   T
  0.6247601405023572  0.4998330842204849  0.3316516262319341   T   T   T
  0.8750668379836184 -0.0000459632344051  0.3313820681698075   T   T   T
  0.8750755832333520  0.4999183254736492  0.3313311230098328   T   T   T
  0.0000000000000000  0.2500000000000000  0.0500000010000008   F   F   F
  0.0000000000000000  0.7500000000000000  0.0500000010000008   F   F   F
  0.2500000000000000  0.2500000000000000  0.0500000010000008   F   F   F
  0.2500000000000000  0.7500000000000000  0.0500000010000008   F   F   F
  0.5000000000000000  0.2500000000000000  0.0500000010000008   F   F   F
  0.5000000000000000  0.7500000000000000  0.0500000010000008   F   F   F
  0.7500000000000000  0.2500000000000000  0.0500000010000008   F   F   F
  0.7500000000000000  0.7500000000000000  0.0500000010000008   F   F   F
  0.1250000000000000  0.0000000000000000  0.0500000010000008   F   F   F
  0.1250000000000000  0.5000000000000000  0.0500000010000008   F   F   F
  0.3750000000000000  0.0000000000000000  0.0500000010000008   F   F   F
  0.3750000000000000  0.5000000000000000  0.0500000010000008   F   F   F
  0.6250000000000000  0.0000000000000000  0.0500000010000008   F   F   F
  0.6250000000000000  0.5000000000000000  0.0500000010000008   F   F   F
  0.8750000000000000  0.0000000000000000  0.0500000010000008   F   F   F
  0.8750000000000000  0.5000000000000000  0.0500000010000008   F   F   F
  0.0000000000000000  0.0000000000000000  0.1457319410000011   F   F   F
  0.0000000000000000  0.5000000000000000  0.1457319410000011   F   F   F
  0.2500000000000000  0.0000000000000000  0.1457319410000011   F   F   F
  0.2500000000000000  0.5000000000000000  0.1457319410000011   F   F   F
  0.5000000000000000  0.0000000000000000  0.1457319410000011   F   F   F
  0.5000000000000000  0.5000000000000000  0.1457319410000011   F   F   F
  0.7500000000000000  0.0000000000000000  0.1457319410000011   F   F   F
  0.7500000000000000  0.5000000000000000  0.1457319410000011   F   F   F
  0.1250000000000000  0.2500000000000000  0.1457319410000011   F   F   F
  0.1250000000000000  0.7500000000000000  0.1457319410000011   F   F   F
  0.3750000000000000  0.2500000000000000  0.1457319410000011   F   F   F
  0.3750000000000000  0.7500000000000000  0.1457319410000011   F   F   F
  0.6250000000000000  0.2500000000000000  0.1457319410000011   F   F   F
  0.6250000000000000  0.7500000000000000  0.1457319410000011   F   F   F
  0.8750000000000000  0.2500000000000000  0.1457319410000011   F   F   F
  0.8750000000000000  0.7500000000000000  0.1457319410000011   F   F   F
  0.0000087029074710  0.2500079949857429  0.2387645410236845   T   T   T
  0.0000072627266035  0.7499968259360633  0.2387548042202959   T   T   T
  0.2501117127855887  0.2500789233486071  0.2389211434449302   T   T   T
  0.2501080082374042  0.7501030822762776  0.2388784569583686   T   T   T
  0.5000123390647528  0.2500650355716416  0.2393205832266838   T   T   T
  0.5000088669751473  0.7502527766041129  0.2391611078544370   T   T   T
  0.7499054390944975  0.2500451856482153  0.2389315463295565   T   T   T
  0.7498889087819195  0.7500208651983030  0.2389019559156735   T   T   T
  0.1250238126835059  0.0000412163596992  0.2387981550368140   T   T   T
  0.1250310563435219  0.5000332184728700  0.2387859330237184   T   T   T
  0.3751323605859618  0.0000861682658812  0.2390756303661001   T   T   T
  0.3750668179412565  0.5000674954775169  0.2389660621302643   T   T   T
  0.6249321438557737  0.0000157835337467  0.2391116163387430   T   T   T
  0.6249474146937174  0.5000555022483745  0.2390476842952245   T   T   T
  0.8749516561245517  0.0000304970792140  0.2388355100806414   T   T   T
  0.8749379741171841  0.5000353666080101  0.2388316618823832   T   T   T
  0.0000309516695547 -0.0000022442948026  0.3335099451835965   T   T   T
  0.0000336502968781  0.5000080178113715  0.3334969612008954   T   T   T
  0.2499487851808598  0.0001578696943805  0.3335520332682933   T   T   T
  0.2499545196585227  0.5002897646130461  0.3335740716295687   T   T   T
  0.5000095164602771  0.0002672955951453  0.3344799490995732   T   T   T
  0.4998913974479079  0.5004835843431658  0.3339955952766662   T   T   T
  0.7500837081177538  0.0000150429322917  0.3337537450360744   T   T   T
  0.7500529175698127  0.5001535162483409  0.3338456229819476   T   T   T
  0.1249372538296992  0.2501260375077054  0.3334408558221450   T   T   T
  0.1249367522746218  0.7501134950933543  0.3334068378260976   T   T   T
  0.3748590721229155  0.2503354546204719  0.3342626121024195   T   T   T
  0.3749003489273289  0.7500767367965275  0.3341484927460572   T   T   T
  0.6252039446932696  0.2502237983271982  0.3341793047817231   T   T   T
  0.6251050674613139  0.7499445185511978  0.3342002707301943   T   T   T
  0.8750859092834171  0.2501425095283544  0.3334081512546637   T   T   T
  0.8750776406389598  0.7501097218152737  0.3333844419767282   T   T   T
  0.0170064090158582  0.9571715327109663  0.4760146603154573   T   T   T
  0.1599268566392694  0.9572195418074801  0.4753363376918567   T   T   T
  0.3032860783407079  0.9572678320885115  0.4769667258254408   T   T   T
  0.4458746700151082  0.9515243672196022  0.4799262621442280   T   T   T
  0.5880703577476863  0.9516285814284433  0.4795736062737421   T   T   T
  0.7307337602952091  0.9572667268417067  0.4774680204503062   T   T   T
  0.8740362246720590  0.9572667559838196  0.4753063753076824   T   T   T
  0.0170223751507099  0.1235197670631148  0.4759649963702889   T   T   T
  0.1603154712435765  0.1236477287531669  0.4754881910808510   T   T   T
  0.3047028713640205  0.1246805870575537  0.4781630133849268   T   T   T
  0.4478460138586490  0.1175359110085897  0.4826065599327224   T   T   T
  0.5860711083797379  0.1176771864761340  0.4821573925276897   T   T   T
  0.7293393013455972  0.1247276914398857  0.4784329051812725   T   T   T
  0.8736225805878480  0.1237061603123065  0.4754604513472978   T   T   T
  0.0170175860552037  0.4570449857052888  0.4757881909836719   T   T   T
  0.1598324979714468  0.4569202584691003  0.4747378788114022   T   T   T
  0.3023901673043071  0.4566230858582965  0.4769644384258397   T   T   T
  0.7316757908771568  0.4566346378082498  0.4776313480134529   T   T   T
  0.8741541580002253  0.4569791334222724  0.4748402604956479   T   T   T
  0.0170252508912066  0.6234732932784139  0.4757011900948678   T   T   T
  0.1596623630769171  0.6236402083999472  0.4748501129211369   T   T   T
  0.3021570868549473  0.6229789023612314  0.4767116543693928   T   T   T
  0.4433588180945124  0.6185164681604634  0.4837085079036009   T   T   T
  0.5906020227745500  0.6186204521806256  0.4832891252756158   T   T   T
  0.7318943461956549  0.6230577062611505  0.4773713294723654   T   T   T
  0.8742864979118609  0.6237039334302570  0.4749268062570118   T   T   T
  0.0886790044211130  0.2069157113113044  0.4757697029261733   T   T   T
  0.2321553630341574  0.2069300016161174  0.4758919186772085   T   T   T
  0.3765125955359796  0.2072291328828567  0.4819690125215207   T   T   T
  0.6574718164467527  0.2073667437234831  0.4815749249065813   T   T   T
  0.8018365776646950  0.2069474231510696  0.4764036464111499   T   T   T
  0.9453209984884837  0.2070068298322366  0.4755064340911759   T   T   T
  0.0884609218212357  0.3735134221085499  0.4755723724691984   T   T   T
  0.2313054356255627  0.3727909448406559  0.4751308982194084   T   T   T
  0.3745166897146902  0.3766946204408779  0.4824963009318087   T   T   T
  0.6595298249692892  0.3766928109589632  0.4821995314121407   T   T   T
  0.8026912915641663  0.3728376699035435  0.4757894372258110   T   T   T
  0.9455619950638141  0.3735470293125147  0.4753782887281544   T   T   T
  0.0884048526811857  0.7070099677331130  0.4755589337878818   T   T   T
  0.2310861716297749  0.7075872911924428  0.4750139464851803   T   T   T
  0.3732683581324685  0.7056952416190495  0.4785324345339659   T   T   T
  0.5169696054244871  0.6991213992012454  0.4833007974511672   T   T   T
  0.6607606116704854  0.7058597412636548  0.4787114349759612   T   T   T
  0.8028999631543016  0.7075992853237631  0.4756855134790782   T   T   T
  0.9456010975517610  0.7071046317242562  0.4752921094205275   T   T   T
  0.0885110368766351  0.8737671881718468  0.4757450715202740   T   T   T
  0.2316217289743315  0.8740721468005783  0.4753847594409578   T   T   T
  0.3738702432230032  0.8716877682047582  0.4780592365441997   T   T   T
  0.5169665018181553  0.8655189811238945  0.4808383863487495   T   T   T
  0.6601639350123033  0.8717864061788759  0.4781837900632869   T   T   T
  0.8023378341374328  0.8740968373709884  0.4759457781653280   T   T   T
  0.9454920090339390  0.8738066779526185  0.4755108338055618   T   T   T
  0.4407367564550285  0.4611679404257513  0.4894342547407230   T   T   T
  0.5930633122350988  0.4611353700104214  0.4882175917287531   T   T   T
  0.5169674667869162  0.1928416826259025  0.4864753399419146   T   T   T
  0.5176049928448384  0.3680221297440079  0.5592184598636581   T   T   T
  0.5207474644637046  0.3570841459946040  0.6629977320737305   T   T   T
 
  0.00000000E+00  0.00000000E+00  0.00000000E+00
  0.00000000E+00  0.00000000E+00  0.00000000E+00
  0.00000000E+00  0.00000000E+00  0.00000000E+00
  0.00000000E+00  0.00000000E+00  0.00000000E+00
  0.00000000E+00  0.00000000E+00  0.00000000E+00
  0.00000000E+00  0.00000000E+00  0.00000000E+00
  0.00000000E+00  0.00000000E+00  0.00000000E+00
  0.00000000E+00  0.00000000E+00  0.00000000E+00
  0.00000000E+00  0.00000000E+00  0.00000000E+00
  0.00000000E+00  0.00000000E+00  0.00000000E+00
  0.00000000E+00  0.00000000E+00  0.00000000E+00
  0.00000000E+00  0.00000000E+00  0.00000000E+00
  0.00000000E+00  0.00000000E+00  0.00000000E+00
  0.00000000E+00  0.00000000E+00  0.00000000E+00
  0.00000000E+00  0.00000000E+00  0.00000000E+00
  0.00000000E+00  0.00000000E+00  0.00000000E+00
  0.00000000E+00  0.00000000E+00  0.00000000E+00
  0.00000000E+00  0.00000000E+00  0.00000000E+00
  0.00000000E+00  0.00000000E+00  0.00000000E+00
  0.00000000E+00  0.00000000E+00  0.00000000E+00
  0.00000000E+00  0.00000000E+00  0.00000000E+00
  0.00000000E+00  0.00000000E+00  0.00000000E+00
  0.00000000E+00  0.00000000E+00  0.00000000E+00
  0.00000000E+00  0.00000000E+00  0.00000000E+00
  0.00000000E+00  0.00000000E+00  0.00000000E+00
  0.00000000E+00  0.00000000E+00  0.00000000E+00
  0.00000000E+00  0.00000000E+00  0.00000000E+00
  0.00000000E+00  0.00000000E+00  0.00000000E+00
  0.00000000E+00  0.00000000E+00  0.00000000E+00
  0.00000000E+00  0.00000000E+00  0.00000000E+00
  0.00000000E+00  0.00000000E+00  0.00000000E+00
  0.00000000E+00  0.00000000E+00  0.00000000E+00
  0.00000000E+00  0.00000000E+00  0.00000000E+00
  0.00000000E+00  0.00000000E+00  0.00000000E+00
  0.00000000E+00  0.00000000E+00  0.00000000E+00
  0.00000000E+00  0.00000000E+00  0.00000000E+00
  0.00000000E+00  0.00000000E+00  0.00000000E+00
  0.00000000E+00  0.00000000E+00  0.00000000E+00
  0.00000000E+00  0.00000000E+00  0.00000000E+00
  0.00000000E+00  0.00000000E+00  0.00000000E+00
  0.00000000E+00  0.00000000E+00  0.00000000E+00
  0.00000000E+00  0.00000000E+00  0.00000000E+00
  0.00000000E+00  0.00000000E+00  0.00000000E+00
  0.00000000E+00  0.00000000E+00  0.00000000E+00
  0.00000000E+00  0.00000000E+00  0.00000000E+00
  0.00000000E+00  0.00000000E+00  0.00000000E+00
  0.00000000E+00  0.00000000E+00  0.00000000E+00
  0.00000000E+00  0.00000000E+00  0.00000000E+00
  0.00000000E+00  0.00000000E+00  0.00000000E+00
  0.00000000E+00  0.00000000E+00  0.00000000E+00
  0.00000000E+00  0.00000000E+00  0.00000000E+00
  0.00000000E+00  0.00000000E+00  0.00000000E+00
  0.00000000E+00  0.00000000E+00  0.00000000E+00
  0.00000000E+00  0.00000000E+00  0.00000000E+00
  0.00000000E+00  0.00000000E+00  0.00000000E+00
  0.00000000E+00  0.00000000E+00  0.00000000E+00
  0.00000000E+00  0.00000000E+00  0.00000000E+00
  0.00000000E+00  0.00000000E+00  0.00000000E+00
  0.00000000E+00  0.00000000E+00  0.00000000E+00
  0.00000000E+00  0.00000000E+00  0.00000000E+00
  0.00000000E+00  0.00000000E+00  0.00000000E+00
  0.00000000E+00  0.00000000E+00  0.00000000E+00
  0.00000000E+00  0.00000000E+00  0.00000000E+00
  0.00000000E+00  0.00000000E+00  0.00000000E+00
  0.00000000E+00  0.00000000E+00  0.00000000E+00
  0.00000000E+00  0.00000000E+00  0.00000000E+00
  0.00000000E+00  0.00000000E+00  0.00000000E+00
  0.00000000E+00  0.00000000E+00  0.00000000E+00
  0.00000000E+00  0.00000000E+00  0.00000000E+00
  0.00000000E+00  0.00000000E+00  0.00000000E+00
  0.00000000E+00  0.00000000E+00  0.00000000E+00
  0.00000000E+00  0.00000000E+00  0.00000000E+00
  0.00000000E+00  0.00000000E+00  0.00000000E+00
  0.00000000E+00  0.00000000E+00  0.00000000E+00
  0.00000000E+00  0.00000000E+00  0.00000000E+00
  0.00000000E+00  0.00000000E+00  0.00000000E+00
  0.00000000E+00  0.00000000E+00  0.00000000E+00
  0.00000000E+00  0.00000000E+00  0.00000000E+00
  0.00000000E+00  0.00000000E+00  0.00000000E+00
  0.00000000E+00  0.00000000E+00  0.00000000E+00
  0.00000000E+00  0.00000000E+00  0.00000000E+00
  0.00000000E+00  0.00000000E+00  0.00000000E+00
  0.00000000E+00  0.00000000E+00  0.00000000E+00
  0.00000000E+00  0.00000000E+00  0.00000000E+00
  0.00000000E+00  0.00000000E+00  0.00000000E+00
  0.00000000E+00  0.00000000E+00  0.00000000E+00
  0.00000000E+00  0.00000000E+00  0.00000000E+00
  0.00000000E+00  0.00000000E+00  0.00000000E+00
  0.00000000E+00  0.00000000E+00  0.00000000E+00
  0.00000000E+00  0.00000000E+00  0.00000000E+00
  0.00000000E+00  0.00000000E+00  0.00000000E+00
  0.00000000E+00  0.00000000E+00  0.00000000E+00
  0.00000000E+00  0.00000000E+00  0.00000000E+00
  0.00000000E+00  0.00000000E+00  0.00000000E+00
  0.00000000E+00  0.00000000E+00  0.00000000E+00
  0.00000000E+00  0.00000000E+00  0.00000000E+00
  0.00000000E+00  0.00000000E+00  0.00000000E+00
  0.00000000E+00  0.00000000E+00  0.00000000E+00
  0.00000000E+00  0.00000000E+00  0.00000000E+00
  0.00000000E+00  0.00000000E+00  0.00000000E+00
  0.00000000E+00  0.00000000E+00  0.00000000E+00
  0.00000000E+00  0.00000000E+00  0.00000000E+00
  0.00000000E+00  0.00000000E+00  0.00000000E+00
  0.00000000E+00  0.00000000E+00  0.00000000E+00
  0.00000000E+00  0.00000000E+00  0.00000000E+00
  0.00000000E+00  0.00000000E+00  0.00000000E+00
  0.00000000E+00  0.00000000E+00  0.00000000E+00
  0.00000000E+00  0.00000000E+00  0.00000000E+00
  0.00000000E+00  0.00000000E+00  0.00000000E+00
  0.00000000E+00  0.00000000E+00  0.00000000E+00
  0.00000000E+00  0.00000000E+00  0.00000000E+00
  0.00000000E+00  0.00000000E+00  0.00000000E+00
  0.00000000E+00  0.00000000E+00  0.00000000E+00
  0.00000000E+00  0.00000000E+00  0.00000000E+00
  0.00000000E+00  0.00000000E+00  0.00000000E+00
  0.00000000E+00  0.00000000E+00  0.00000000E+00
  0.00000000E+00  0.00000000E+00  0.00000000E+00
  0.00000000E+00  0.00000000E+00  0.00000000E+00
  0.00000000E+00  0.00000000E+00  0.00000000E+00
  0.00000000E+00  0.00000000E+00  0.00000000E+00
  0.00000000E+00  0.00000000E+00  0.00000000E+00
  0.00000000E+00  0.00000000E+00  0.00000000E+00
  0.00000000E+00  0.00000000E+00  0.00000000E+00
  0.00000000E+00  0.00000000E+00  0.00000000E+00
  0.00000000E+00  0.00000000E+00  0.00000000E+00
  0.00000000E+00  0.00000000E+00  0.00000000E+00
  0.00000000E+00  0.00000000E+00  0.00000000E+00
  0.00000000E+00  0.00000000E+00  0.00000000E+00
  0.00000000E+00  0.00000000E+00  0.00000000E+00
  0.00000000E+00  0.00000000E+00  0.00000000E+00
  0.00000000E+00  0.00000000E+00  0.00000000E+00
  0.00000000E+00  0.00000000E+00  0.00000000E+00
  0.00000000E+00  0.00000000E+00  0.00000000E+00
  0.00000000E+00  0.00000000E+00  0.00000000E+00
  0.00000000E+00  0.00000000E+00  0.00000000E+00
  0.00000000E+00  0.00000000E+00  0.00000000E+00
  0.00000000E+00  0.00000000E+00  0.00000000E+00
  0.00000000E+00  0.00000000E+00  0.00000000E+00
  0.00000000E+00  0.00000000E+00  0.00000000E+00
  0.00000000E+00  0.00000000E+00  0.00000000E+00
  0.00000000E+00  0.00000000E+00  0.00000000E+00
  0.00000000E+00  0.00000000E+00  0.00000000E+00
  0.00000000E+00  0.00000000E+00  0.00000000E+00
  0.00000000E+00  0.00000000E+00  0.00000000E+00
  0.00000000E+00  0.00000000E+00  0.00000000E+00
  0.00000000E+00  0.00000000E+00  0.00000000E+00
  0.00000000E+00  0.00000000E+00  0.00000000E+00
  0.00000000E+00  0.00000000E+00  0.00000000E+00
  0.00000000E+00  0.00000000E+00  0.00000000E+00
  0.00000000E+00  0.00000000E+00  0.00000000E+00
  0.00000000E+00  0.00000000E+00  0.00000000E+00
  0.00000000E+00  0.00000000E+00  0.00000000E+00
  0.00000000E+00  0.00000000E+00  0.00000000E+00
  0.00000000E+00  0.00000000E+00  0.00000000E+00
  0.00000000E+00  0.00000000E+00  0.00000000E+00
  0.00000000E+00  0.00000000E+00  0.00000000E+00
  0.00000000E+00  0.00000000E+00  0.00000000E+00
  0.00000000E+00  0.00000000E+00  0.00000000E+00
  0.00000000E+00  0.00000000E+00  0.00000000E+00
  0.00000000E+00  0.00000000E+00  0.00000000E+00
  0.00000000E+00  0.00000000E+00  0.00000000E+00
  0.00000000E+00  0.00000000E+00  0.00000000E+00
  0.00000000E+00  0.00000000E+00  0.00000000E+00
  0.00000000E+00  0.00000000E+00  0.00000000E+00
  0.00000000E+00  0.00000000E+00  0.00000000E+00
  0.00000000E+00  0.00000000E+00  0.00000000E+00
  0.00000000E+00  0.00000000E+00  0.00000000E+00
  0.00000000E+00  0.00000000E+00  0.00000000E+00
  0.00000000E+00  0.00000000E+00  0.00000000E+00
  0.00000000E+00  0.00000000E+00  0.00000000E+00
  0.00000000E+00  0.00000000E+00  0.00000000E+00
  0.00000000E+00  0.00000000E+00  0.00000000E+00
  0.00000000E+00  0.00000000E+00  0.00000000E+00
  0.00000000E+00  0.00000000E+00  0.00000000E+00
  0.00000000E+00  0.00000000E+00  0.00000000E+00
  0.00000000E+00  0.00000000E+00  0.00000000E+00
  0.00000000E+00  0.00000000E+00  0.00000000E+00
  0.00000000E+00  0.00000000E+00  0.00000000E+00
  0.00000000E+00  0.00000000E+00  0.00000000E+00
  0.00000000E+00  0.00000000E+00  0.00000000E+00
  0.00000000E+00  0.00000000E+00  0.00000000E+00
  0.00000000E+00  0.00000000E+00  0.00000000E+00
  0.00000000E+00  0.00000000E+00  0.00000000E+00
  0.00000000E+00  0.00000000E+00  0.00000000E+00
  0.00000000E+00  0.00000000E+00  0.00000000E+00
