Cu(111) surface                         
   1.00000000000000     
    12.7550029755000001    0.0000000000000000    0.0000000000000000
    -6.3775029586000000   11.0461557529000007    0.0000000000000000
     0.0000000000000000    0.0000000000000000   22.8339500426999997
   Cu   C    N    Pt   Os
   100    46     3     1     1
Selective dynamics
Direct
  0.0000000000000000  0.0000000000000000  0.0895158200000026   F   F   F
  0.0000000000000000  0.2000000029999995  0.0895158200000026   F   F   F
  0.0000000000000000  0.4000000059999991  0.0895158200000026   F   F   F
  0.0000000000000000  0.6000000240000034  0.0895158200000026   F   F   F
  0.0000000000000000  0.8000000119999982  0.0895158200000026   F   F   F
  0.2000000029999995  0.0000000000000000  0.0895158200000026   F   F   F
  0.2000000029999995  0.2000000029999995  0.0895158200000026   F   F   F
  0.2000000029999995  0.4000000059999991  0.0895158200000026   F   F   F
  0.2000000029999995  0.6000000240000034  0.0895158200000026   F   F   F
  0.2000000029999995  0.8000000119999982  0.0895158200000026   F   F   F
  0.4000000059999991  0.0000000000000000  0.0895158200000026   F   F   F
  0.4000000059999991  0.2000000029999995  0.0895158200000026   F   F   F
  0.4000000059999991  0.4000000059999991  0.0895158200000026   F   F   F
  0.4000000059999991  0.6000000240000034  0.0895158200000026   F   F   F
  0.4000000059999991  0.8000000119999982  0.0895158200000026   F   F   F
  0.6000000240000034  0.0000000000000000  0.0895158200000026   F   F   F
  0.6000000240000034  0.2000000029999995  0.0895158200000026   F   F   F
  0.6000000240000034  0.4000000059999991  0.0895158200000026   F   F   F
  0.6000000240000034  0.6000000240000034  0.0895158200000026   F   F   F
  0.6000000240000034  0.8000000119999982  0.0895158200000026   F   F   F
  0.8000000119999982  0.0000000000000000  0.0895158200000026   F   F   F
  0.8000000119999982  0.2000000029999995  0.0895158200000026   F   F   F
  0.8000000119999982  0.4000000059999991  0.0895158200000026   F   F   F
  0.8000000119999982  0.6000000240000034  0.0895158200000026   F   F   F
  0.8000000119999982  0.8000000119999982  0.0895158200000026   F   F   F
  0.0666666699999965  0.1333333400000001  0.1807345149999975   F   F   F
  0.0666666699999965  0.3333333429999996  0.1807345149999975   F   F   F
  0.0666666699999965  0.5333333609999968  0.1807345149999975   F   F   F
  0.0666666699999965  0.7333333489999987  0.1807345149999975   F   F   F
  0.0666666699999965  0.9333333370000005  0.1807345149999975   F   F   F
  0.2666666809999967  0.1333333400000001  0.1807345149999975   F   F   F
  0.2666666809999967  0.3333333429999996  0.1807345149999975   F   F   F
  0.2666666809999967  0.5333333609999968  0.1807345149999975   F   F   F
  0.2666666809999967  0.7333333489999987  0.1807345149999975   F   F   F
  0.2666666809999967  0.9333333370000005  0.1807345149999975   F   F   F
  0.4666666689999985  0.1333333400000001  0.1807345149999975   F   F   F
  0.4666666689999985  0.3333333429999996  0.1807345149999975   F   F   F
  0.4666666689999985  0.5333333609999968  0.1807345149999975   F   F   F
  0.4666666689999985  0.7333333489999987  0.1807345149999975   F   F   F
  0.4666666689999985  0.9333333370000005  0.1807345149999975   F   F   F
  0.6666666870000029  0.1333333400000001  0.1807345149999975   F   F   F
  0.6666666870000029  0.3333333429999996  0.1807345149999975   F   F   F
  0.6666666870000029  0.5333333609999968  0.1807345149999975   F   F   F
  0.6666666870000029  0.7333333489999987  0.1807345149999975   F   F   F
  0.6666666870000029  0.9333333370000005  0.1807345149999975   F   F   F
  0.8666666749999976  0.1333333400000001  0.1807345149999975   F   F   F
  0.8666666749999976  0.3333333429999996  0.1807345149999975   F   F   F
  0.8666666749999976  0.5333333609999968  0.1807345149999975   F   F   F
  0.8666666749999976  0.7333333489999987  0.1807345149999975   F   F   F
  0.8666666749999976  0.9333333370000005  0.1807345149999975   F   F   F
  0.1337222030712927  0.0668713032081845  0.2687944281490711   T   T   T
  0.1335709360272559  0.2666874648377084  0.2689746096782761   T   T   T
  0.1337426487366742  0.4665292472207110  0.2688129776712586   T   T   T
  0.1335017821877781  0.6666114175428056  0.2687579828602659   T   T   T
  0.1334252650392282  0.8665170379055035  0.2687346928879060   T   T   T
  0.3340014293346588  0.0676356341493452  0.2689080823892475   T   T   T
  0.3345100283529453  0.2681532770323095  0.2699091283113836   T   T   T
  0.3346104583606285  0.4660319454645128  0.2699461145904978   T   T   T
  0.3340276754068691  0.6659678942860677  0.2689348954012409   T   T   T
  0.3333970241364870  0.8665086359634482  0.2687582249526223   T   T   T
  0.5334551699798034  0.0668397427485605  0.2688290301875821   T   T   T
  0.5339673372197361  0.2682321022014794  0.2699154984928159   T   T   T
  0.5335511638208922  0.4664431754843036  0.2715670341898760   T   T   T
  0.5339711517031785  0.6653994819682230  0.2699420212197837   T   T   T
  0.5334591629139276  0.8662518721976673  0.2688157819169685   T   T   T
  0.7334914197657173  0.0666037983877607  0.2689451137296844   T   T   T
  0.7333599529055486  0.2666328047336533  0.2689670695702521   T   T   T
  0.7317671112586845  0.4660334949999735  0.2699160901337888   T   T   T
  0.7318411880341427  0.6654778578579980  0.2699048698730189   T   T   T
  0.7333142689316692  0.8664250331710940  0.2689764862514308   T   T   T
  0.9334054215807998  0.0665884637129537  0.2689519073122780   T   T   T
  0.9333903883470089  0.2665059686502859  0.2689478108224402   T   T   T
  0.9331604978904053  0.4665359073586120  0.2688310337589543   T   T   T
  0.9323377677833418  0.6659769051515069  0.2689068973086476   T   T   T
  0.9331338468631745  0.8662936854980483  0.2687999042653259   T   T   T
  0.0003081057735642  0.9996821030756519  0.3567794080875489   T   T   T
  0.0001219555776875  0.1998304629437806  0.3571385578177439   T   T   T
  0.0003184654533404  0.4000646372336443  0.3567636519056887   T   T   T
  0.0007920850288274  0.6001356030858984  0.3566048944605724   T   T   T
  0.0006993092927348  0.8000443200256817  0.3566014677128190   T   T   T
  0.1999485446061381  0.9992962421021000  0.3565925438418600   T   T   T
  0.1997946452710570  0.1994775291770938  0.3568396985923621   T   T   T
  0.1998784429892464  0.3997786036787692  0.3568541820540944   T   T   T
  0.1999384524717140  0.6000872437282568  0.3566339282650434   T   T   T
  0.2001346731095174  0.7998727399504287  0.3567554276397948   T   T   T
  0.3998709343709585  0.9992094602020886  0.3566036399289054   T   T   T
  0.3997548570418799  0.1990634223856098  0.3576764299132920   T   T   T
  0.4012466922998559  0.4002458111191021  0.3615994420027380   T   T   T
  0.3998577448773561  0.6001479128662884  0.3577365958809361   T   T   T
  0.3999124932384127  0.8000634771019143  0.3566367203328167   T   T   T
  0.5999372567441826  0.9996815433062988  0.3567618422296358   T   T   T
  0.6001357304480770  0.1994017987050174  0.3568188702633546   T   T   T
  0.5996977747396566  0.4003077641126809  0.3618487362333570   T   T   T
  0.5997581527434018  0.5987716547799272  0.3615880540750287   T   T   T
  0.6002250024590576  0.8001240737153581  0.3568573779470840   T   T   T
  0.8001659056551454 -0.0001349655711755  0.3571411322852152   T   T   T
  0.8001896628258707  0.1998055260877658  0.3571461261609576   T   T   T
  0.8005935743601763  0.3998659262699392  0.3568203446538180   T   T   T
  0.8009420123333499  0.6002456401342809  0.3576843849499499   T   T   T
  0.8004924668346907  0.8001696565617954  0.3568356203915040   T   T   T
  0.1335936003658744  0.0646723691568805  0.4743545967782594   T   T   T
  0.1319523921769128  0.2644465791270292  0.4736762218875437   T   T   T
  0.1335880458815605  0.4658751988716396  0.4743968670902338   T   T   T
  0.1345276009855477  0.6659945269457322  0.4748420498931889   T   T   T
  0.1345380669909129  0.8655022977474353  0.4748262760238258   T   T   T
  0.3349527628406183  0.0668340827468507  0.4730602907013944   T   T   T
  0.3293631133901485  0.2647035175067968  0.4692985252099986   T   T   T
  0.3293693091610498  0.4616397233019219  0.4694216564953574   T   T   T
  0.3349651356751410  0.6650799377751702  0.4731662329408160   T   T   T
  0.3340408550967579  0.8655104160330414  0.4748440369900822   T   T   T
  0.5341583433312138  0.0646620056609188  0.4743421188881694   T   T   T
  0.5383768804397904  0.2646504582745945  0.4691424559209740   T   T   T
  0.5384000587919673  0.6706718821008434  0.4694068706434243   T   T   T
  0.5341623080571712  0.8664473304815163  0.4744099402694625   T   T   T
  0.7342337005678379  0.0656028884384796  0.4746959757329023   T   T   T
  0.7355688214627472  0.2644627440238040  0.4735592106018474   T   T   T
  0.7353759343269537  0.4616544115486131  0.4691414631295112   T   T   T
  0.7353247127102764  0.6706738045682442  0.4692820664520311   T   T   T
  0.7355944879411490  0.8680960359268169  0.4736745572739491   T   T   T
  0.9344536442215964  0.0655919200440623  0.4747110475803585   T   T   T
  0.9344331823069879  0.2657945181129009  0.4746889659091775   T   T   T
  0.9353719989101857  0.4658726186780444  0.4743328931023387   T   T   T
  0.9331928253255199  0.6650835933161795  0.4730502462183507   T   T   T
  0.9353606126344652  0.8664460089913483  0.4743595810572058   T   T   T
  0.0009779004775500  0.9990623357112501  0.4747472090118190   T   T   T
  0.0006235821887851  0.1987916367341037  0.4745351062654706   T   T   T
  0.0009750489518772  0.3988734372199566  0.4747371729778320   T   T   T
  0.0010408812988279  0.5991682891254281  0.4740828365311402   T   T   T
  0.0010449777055604  0.7988319261010580  0.4740850261015963   T   T   T
  0.2012147667509804  0.9989983273328747  0.4740908993347227   T   T   T
  0.1986623697327478  0.1971809699139690  0.4730527981876006   T   T   T
  0.1986868348930488  0.3984554894935195  0.4730999691908441   T   T   T
  0.2011852526236155  0.5991733666783715  0.4741498796119756   T   T   T
  0.2010347250386950  0.7990087749061593  0.4747010535921368   T   T   T
  0.4008684499475323  0.9990004229694697  0.4740905489847416   T   T   T
  0.4021673668629874  0.2012985054696194  0.4692486861307534   T   T   T
  0.4021764010598497  0.5978718887539585  0.4694349097201228   T   T   T
  0.4008660893519626  0.7988566497530686  0.4741522140179029   T   T   T
  0.6011607407445362  0.9990617262666174  0.4747490579865364   T   T   T
  0.6015809303503104  0.1972017885195184  0.4729725184093849   T   T   T
  0.6015802093268956  0.8013588875328613  0.4731033066724880   T   T   T
  0.8012461829412504  0.9994139285160445  0.4745360561960421   T   T   T
  0.8012400767287294  0.1987963369854372  0.4744807970822463   T   T   T
  0.8028319248384151  0.3984572249462575  0.4729641994448819   T   T   T
  0.7987368311301265  0.5978747762542598  0.4692358306665366   T   T   T
  0.8028631146887845  0.8013792247063496  0.4730482140919177   T   T   T
  0.3891577688372537  0.3930842322762905  0.4653746398619495   T   T   T
  0.6069499356241682  0.3930773115380909  0.4648586242365240   T   T   T
  0.6069530301687998  0.6108902544967001  0.4653734903636382   T   T   T
  0.5346082910021789  0.4654710058396446  0.5299348817800844   T   T   T
  0.5354046051956433  0.4649916047847973  0.6298899272246765   T   T   T
 
  0.00000000E+00  0.00000000E+00  0.00000000E+00
  0.00000000E+00  0.00000000E+00  0.00000000E+00
  0.00000000E+00  0.00000000E+00  0.00000000E+00
  0.00000000E+00  0.00000000E+00  0.00000000E+00
  0.00000000E+00  0.00000000E+00  0.00000000E+00
  0.00000000E+00  0.00000000E+00  0.00000000E+00
  0.00000000E+00  0.00000000E+00  0.00000000E+00
  0.00000000E+00  0.00000000E+00  0.00000000E+00
  0.00000000E+00  0.00000000E+00  0.00000000E+00
  0.00000000E+00  0.00000000E+00  0.00000000E+00
  0.00000000E+00  0.00000000E+00  0.00000000E+00
  0.00000000E+00  0.00000000E+00  0.00000000E+00
  0.00000000E+00  0.00000000E+00  0.00000000E+00
  0.00000000E+00  0.00000000E+00  0.00000000E+00
  0.00000000E+00  0.00000000E+00  0.00000000E+00
  0.00000000E+00  0.00000000E+00  0.00000000E+00
  0.00000000E+00  0.00000000E+00  0.00000000E+00
  0.00000000E+00  0.00000000E+00  0.00000000E+00
  0.00000000E+00  0.00000000E+00  0.00000000E+00
  0.00000000E+00  0.00000000E+00  0.00000000E+00
  0.00000000E+00  0.00000000E+00  0.00000000E+00
  0.00000000E+00  0.00000000E+00  0.00000000E+00
  0.00000000E+00  0.00000000E+00  0.00000000E+00
  0.00000000E+00  0.00000000E+00  0.00000000E+00
  0.00000000E+00  0.00000000E+00  0.00000000E+00
  0.00000000E+00  0.00000000E+00  0.00000000E+00
  0.00000000E+00  0.00000000E+00  0.00000000E+00
  0.00000000E+00  0.00000000E+00  0.00000000E+00
  0.00000000E+00  0.00000000E+00  0.00000000E+00
  0.00000000E+00  0.00000000E+00  0.00000000E+00
  0.00000000E+00  0.00000000E+00  0.00000000E+00
  0.00000000E+00  0.00000000E+00  0.00000000E+00
  0.00000000E+00  0.00000000E+00  0.00000000E+00
  0.00000000E+00  0.00000000E+00  0.00000000E+00
  0.00000000E+00  0.00000000E+00  0.00000000E+00
  0.00000000E+00  0.00000000E+00  0.00000000E+00
  0.00000000E+00  0.00000000E+00  0.00000000E+00
  0.00000000E+00  0.00000000E+00  0.00000000E+00
  0.00000000E+00  0.00000000E+00  0.00000000E+00
  0.00000000E+00  0.00000000E+00  0.00000000E+00
  0.00000000E+00  0.00000000E+00  0.00000000E+00
  0.00000000E+00  0.00000000E+00  0.00000000E+00
  0.00000000E+00  0.00000000E+00  0.00000000E+00
  0.00000000E+00  0.00000000E+00  0.00000000E+00
  0.00000000E+00  0.00000000E+00  0.00000000E+00
  0.00000000E+00  0.00000000E+00  0.00000000E+00
  0.00000000E+00  0.00000000E+00  0.00000000E+00
  0.00000000E+00  0.00000000E+00  0.00000000E+00
  0.00000000E+00  0.00000000E+00  0.00000000E+00
  0.00000000E+00  0.00000000E+00  0.00000000E+00
  0.00000000E+00  0.00000000E+00  0.00000000E+00
  0.00000000E+00  0.00000000E+00  0.00000000E+00
  0.00000000E+00  0.00000000E+00  0.00000000E+00
  0.00000000E+00  0.00000000E+00  0.00000000E+00
  0.00000000E+00  0.00000000E+00  0.00000000E+00
  0.00000000E+00  0.00000000E+00  0.00000000E+00
  0.00000000E+00  0.00000000E+00  0.00000000E+00
  0.00000000E+00  0.00000000E+00  0.00000000E+00
  0.00000000E+00  0.00000000E+00  0.00000000E+00
  0.00000000E+00  0.00000000E+00  0.00000000E+00
  0.00000000E+00  0.00000000E+00  0.00000000E+00
  0.00000000E+00  0.00000000E+00  0.00000000E+00
  0.00000000E+00  0.00000000E+00  0.00000000E+00
  0.00000000E+00  0.00000000E+00  0.00000000E+00
  0.00000000E+00  0.00000000E+00  0.00000000E+00
  0.00000000E+00  0.00000000E+00  0.00000000E+00
  0.00000000E+00  0.00000000E+00  0.00000000E+00
  0.00000000E+00  0.00000000E+00  0.00000000E+00
  0.00000000E+00  0.00000000E+00  0.00000000E+00
  0.00000000E+00  0.00000000E+00  0.00000000E+00
  0.00000000E+00  0.00000000E+00  0.00000000E+00
  0.00000000E+00  0.00000000E+00  0.00000000E+00
  0.00000000E+00  0.00000000E+00  0.00000000E+00
  0.00000000E+00  0.00000000E+00  0.00000000E+00
  0.00000000E+00  0.00000000E+00  0.00000000E+00
  0.00000000E+00  0.00000000E+00  0.00000000E+00
  0.00000000E+00  0.00000000E+00  0.00000000E+00
  0.00000000E+00  0.00000000E+00  0.00000000E+00
  0.00000000E+00  0.00000000E+00  0.00000000E+00
  0.00000000E+00  0.00000000E+00  0.00000000E+00
  0.00000000E+00  0.00000000E+00  0.00000000E+00
  0.00000000E+00  0.00000000E+00  0.00000000E+00
  0.00000000E+00  0.00000000E+00  0.00000000E+00
  0.00000000E+00  0.00000000E+00  0.00000000E+00
  0.00000000E+00  0.00000000E+00  0.00000000E+00
  0.00000000E+00  0.00000000E+00  0.00000000E+00
  0.00000000E+00  0.00000000E+00  0.00000000E+00
  0.00000000E+00  0.00000000E+00  0.00000000E+00
  0.00000000E+00  0.00000000E+00  0.00000000E+00
  0.00000000E+00  0.00000000E+00  0.00000000E+00
  0.00000000E+00  0.00000000E+00  0.00000000E+00
  0.00000000E+00  0.00000000E+00  0.00000000E+00
  0.00000000E+00  0.00000000E+00  0.00000000E+00
  0.00000000E+00  0.00000000E+00  0.00000000E+00
  0.00000000E+00  0.00000000E+00  0.00000000E+00
  0.00000000E+00  0.00000000E+00  0.00000000E+00
  0.00000000E+00  0.00000000E+00  0.00000000E+00
  0.00000000E+00  0.00000000E+00  0.00000000E+00
  0.00000000E+00  0.00000000E+00  0.00000000E+00
  0.00000000E+00  0.00000000E+00  0.00000000E+00
  0.00000000E+00  0.00000000E+00  0.00000000E+00
  0.00000000E+00  0.00000000E+00  0.00000000E+00
  0.00000000E+00  0.00000000E+00  0.00000000E+00
  0.00000000E+00  0.00000000E+00  0.00000000E+00
  0.00000000E+00  0.00000000E+00  0.00000000E+00
  0.00000000E+00  0.00000000E+00  0.00000000E+00
  0.00000000E+00  0.00000000E+00  0.00000000E+00
  0.00000000E+00  0.00000000E+00  0.00000000E+00
  0.00000000E+00  0.00000000E+00  0.00000000E+00
  0.00000000E+00  0.00000000E+00  0.00000000E+00
  0.00000000E+00  0.00000000E+00  0.00000000E+00
  0.00000000E+00  0.00000000E+00  0.00000000E+00
  0.00000000E+00  0.00000000E+00  0.00000000E+00
  0.00000000E+00  0.00000000E+00  0.00000000E+00
  0.00000000E+00  0.00000000E+00  0.00000000E+00
  0.00000000E+00  0.00000000E+00  0.00000000E+00
  0.00000000E+00  0.00000000E+00  0.00000000E+00
  0.00000000E+00  0.00000000E+00  0.00000000E+00
  0.00000000E+00  0.00000000E+00  0.00000000E+00
  0.00000000E+00  0.00000000E+00  0.00000000E+00
  0.00000000E+00  0.00000000E+00  0.00000000E+00
  0.00000000E+00  0.00000000E+00  0.00000000E+00
  0.00000000E+00  0.00000000E+00  0.00000000E+00
  0.00000000E+00  0.00000000E+00  0.00000000E+00
  0.00000000E+00  0.00000000E+00  0.00000000E+00
  0.00000000E+00  0.00000000E+00  0.00000000E+00
  0.00000000E+00  0.00000000E+00  0.00000000E+00
  0.00000000E+00  0.00000000E+00  0.00000000E+00
  0.00000000E+00  0.00000000E+00  0.00000000E+00
  0.00000000E+00  0.00000000E+00  0.00000000E+00
  0.00000000E+00  0.00000000E+00  0.00000000E+00
  0.00000000E+00  0.00000000E+00  0.00000000E+00
  0.00000000E+00  0.00000000E+00  0.00000000E+00
  0.00000000E+00  0.00000000E+00  0.00000000E+00
  0.00000000E+00  0.00000000E+00  0.00000000E+00
  0.00000000E+00  0.00000000E+00  0.00000000E+00
  0.00000000E+00  0.00000000E+00  0.00000000E+00
  0.00000000E+00  0.00000000E+00  0.00000000E+00
  0.00000000E+00  0.00000000E+00  0.00000000E+00
  0.00000000E+00  0.00000000E+00  0.00000000E+00
  0.00000000E+00  0.00000000E+00  0.00000000E+00
  0.00000000E+00  0.00000000E+00  0.00000000E+00
  0.00000000E+00  0.00000000E+00  0.00000000E+00
  0.00000000E+00  0.00000000E+00  0.00000000E+00
  0.00000000E+00  0.00000000E+00  0.00000000E+00
  0.00000000E+00  0.00000000E+00  0.00000000E+00
  0.00000000E+00  0.00000000E+00  0.00000000E+00
  0.00000000E+00  0.00000000E+00  0.00000000E+00
  0.00000000E+00  0.00000000E+00  0.00000000E+00
  0.00000000E+00  0.00000000E+00  0.00000000E+00
  0.00000000E+00  0.00000000E+00  0.00000000E+00
