Ni(111) surface                         
   1.00000000000000     
    12.3556299210000002    0.0000000000000000    0.0000000000000000
    -6.1778163852999999   10.7002885686999996    0.0000000000000000
     0.0000000000000000    0.0000000000000000   22.1189937591999986
   Ni   C    N    Pt   Os
   100    46     3     1     1
Selective dynamics
Direct
  0.0000000000000000  0.0000000000000000  0.0895158200000026   F   F   F
  0.0000000000000000  0.2000000029999995  0.0895158200000026   F   F   F
  0.0000000000000000  0.4000000059999991  0.0895158200000026   F   F   F
  0.0000000000000000  0.6000000240000034  0.0895158200000026   F   F   F
  0.0000000000000000  0.8000000119999982  0.0895158200000026   F   F   F
  0.2000000029999995  0.0000000000000000  0.0895158200000026   F   F   F
  0.2000000029999995  0.2000000029999995  0.0895158200000026   F   F   F
  0.2000000029999995  0.4000000059999991  0.0895158200000026   F   F   F
  0.2000000029999995  0.6000000240000034  0.0895158200000026   F   F   F
  0.2000000029999995  0.8000000119999982  0.0895158200000026   F   F   F
  0.4000000059999991  0.0000000000000000  0.0895158200000026   F   F   F
  0.4000000059999991  0.2000000029999995  0.0895158200000026   F   F   F
  0.4000000059999991  0.4000000059999991  0.0895158200000026   F   F   F
  0.4000000059999991  0.6000000240000034  0.0895158200000026   F   F   F
  0.4000000059999991  0.8000000119999982  0.0895158200000026   F   F   F
  0.6000000240000034  0.0000000000000000  0.0895158200000026   F   F   F
  0.6000000240000034  0.2000000029999995  0.0895158200000026   F   F   F
  0.6000000240000034  0.4000000059999991  0.0895158200000026   F   F   F
  0.6000000240000034  0.6000000240000034  0.0895158200000026   F   F   F
  0.6000000240000034  0.8000000119999982  0.0895158200000026   F   F   F
  0.8000000119999982  0.0000000000000000  0.0895158200000026   F   F   F
  0.8000000119999982  0.2000000029999995  0.0895158200000026   F   F   F
  0.8000000119999982  0.4000000059999991  0.0895158200000026   F   F   F
  0.8000000119999982  0.6000000240000034  0.0895158200000026   F   F   F
  0.8000000119999982  0.8000000119999982  0.0895158200000026   F   F   F
  0.0666666699999965  0.1333333400000001  0.1807345149999975   F   F   F
  0.0666666699999965  0.3333333429999996  0.1807345149999975   F   F   F
  0.0666666699999965  0.5333333609999968  0.1807345149999975   F   F   F
  0.0666666699999965  0.7333333489999987  0.1807345149999975   F   F   F
  0.0666666699999965  0.9333333370000005  0.1807345149999975   F   F   F
  0.2666666809999967  0.1333333400000001  0.1807345149999975   F   F   F
  0.2666666809999967  0.3333333429999996  0.1807345149999975   F   F   F
  0.2666666809999967  0.5333333609999968  0.1807345149999975   F   F   F
  0.2666666809999967  0.7333333489999987  0.1807345149999975   F   F   F
  0.2666666809999967  0.9333333370000005  0.1807345149999975   F   F   F
  0.4666666689999985  0.1333333400000001  0.1807345149999975   F   F   F
  0.4666666689999985  0.3333333429999996  0.1807345149999975   F   F   F
  0.4666666689999985  0.5333333609999968  0.1807345149999975   F   F   F
  0.4666666689999985  0.7333333489999987  0.1807345149999975   F   F   F
  0.4666666689999985  0.9333333370000005  0.1807345149999975   F   F   F
  0.6666666870000029  0.1333333400000001  0.1807345149999975   F   F   F
  0.6666666870000029  0.3333333429999996  0.1807345149999975   F   F   F
  0.6666666870000029  0.5333333609999968  0.1807345149999975   F   F   F
  0.6666666870000029  0.7333333489999987  0.1807345149999975   F   F   F
  0.6666666870000029  0.9333333370000005  0.1807345149999975   F   F   F
  0.8666666749999976  0.1333333400000001  0.1807345149999975   F   F   F
  0.8666666749999976  0.3333333429999996  0.1807345149999975   F   F   F
  0.8666666749999976  0.5333333609999968  0.1807345149999975   F   F   F
  0.8666666749999976  0.7333333489999987  0.1807345149999975   F   F   F
  0.8666666749999976  0.9333333370000005  0.1807345149999975   F   F   F
  0.1345883294023120  0.0666728820691773  0.2709730360252294   T   T   T
  0.1345267372527635  0.2673861732176006  0.2705518573386045   T   T   T
  0.1345871693806224  0.4682664814870309  0.2709434465149741   T   T   T
  0.1336527423298454  0.6671437007645390  0.2715050156858964   T   T   T
  0.1336125637953194  0.8668939271870927  0.2715102518486166   T   T   T
  0.3333106720112056  0.0664953808400643  0.2719766360483269   T   T   T
  0.3344289018359183  0.2672761744276138  0.2717945808911528   T   T   T
  0.3344048312320888  0.4672231550772819  0.2717449566963036   T   T   T
  0.3333067802175497  0.6670452372025597  0.2719034958709342   T   T   T
  0.3335949913084395  0.8669913252101744  0.2715326844413774   T   T   T
  0.5323357150221071  0.0667513244735821  0.2710402765650875   T   T   T
  0.5329697749480893  0.2673160368902775  0.2717728222101415   T   T   T
  0.5333801387608819  0.4667131369728258  0.2722370471502942   T   T   T
  0.5329499127333932  0.6658030849873520  0.2717236234843520   T   T   T
  0.5323611573009387  0.8657606612688191  0.2709593679725965   T   T   T
  0.7328555386009784  0.0665638380838956  0.2696323102281493   T   T   T
  0.7329814481673123  0.2674268790265096  0.2705432389559984   T   T   T
  0.7328899462611459  0.4672331848012014  0.2716992133697523   T   T   T
  0.7329063222992952  0.6658040032344709  0.2717194926226278   T   T   T
  0.7329014080820159  0.8656138480771641  0.2706022677522326   T   T   T
  0.9338452979541388  0.0665190891598855  0.2696333633742095   T   T   T
  0.9339045584907090  0.2677331166601536  0.2697030469645978   T   T   T
  0.9337715398566172  0.4682788174433585  0.2709228664402159   T   T   T
  0.9337910332886089  0.6670026975386628  0.2718671474862770   T   T   T
  0.9336504054416632  0.8657573388976332  0.2709127752218628   T   T   T
  0.9984158544955318  0.1995075167279445  0.3588245614310344   T   T   T
  0.9986660421675528  0.3972305472192084  0.3591693369199200   T   T   T
  0.0004868345654994  0.5993530155210778  0.3633510027057494   T   T   T
  0.0002728334544797  0.8021443808445541  0.3632891497841890   T   T   T
  0.9984946859378808  0.0021547431519610  0.3591322401495744   T   T   T
  0.1974458072091714  0.2000443233485957  0.3607069913376657   T   T   T
  0.1973940322417992  0.3983876440093121  0.3606222386896366   T   T   T
  0.1989641994248048  0.5992107392486025  0.3633701082008460   T   T   T
  0.2008086225358200  0.8011029616789710  0.3613207988329971   T   T   T
  0.1987867686359255  0.0007117972253869  0.3634906322314321   T   T   T
  0.4001702043784732  0.1999860503675041  0.3633532232286161   T   T   T
  0.4007449448684793  0.4007302824631366  0.3636858543258518   T   T   T
  0.3999792374058971  0.6006169884686008  0.3632566771542353   T   T   T
  0.4022726403536063  0.8020646803997779  0.3633577978132758   T   T   T
  0.4024358702336087  0.0009086832607901  0.3635738698365258   T   T   T
  0.6028923470802969  0.2002009485623909  0.3607414410183095   T   T   T
  0.6002864804626936  0.4007540323149069  0.3636324499874730   T   T   T
  0.6001117621428582  0.6000043267246630  0.3635886206141194   T   T   T
  0.6025830441431224  0.8029338279474555  0.3608102325084653   T   T   T
  0.6038965112132255  0.0020586702783294  0.3591488335591820   T   T   T
  0.8012548222021012  0.1995206811597138  0.3588486228122366   T   T   T
  0.8012357217607177  0.3985600151527292  0.3605572482013589   T   T   T
  0.8008799615741051  0.6006896697285221  0.3632476882939089   T   T   T
  0.8008690374713759  0.8029045720361564  0.3607376236295114   T   T   T
  0.8012711828290600  0.0022778963039813  0.3587635160262689   T   T   T
  0.1346447456068811  0.0692943965669100  0.4737825870346496   T   T   T
  0.1343254249466865  0.2689525448071749  0.4808100151399440   T   T   T
  0.1346306926305267  0.4689139041500769  0.4736613473366039   T   T   T
  0.1348874008064827  0.6683998629350285  0.4583967488038362   T   T   T
  0.1349061029261566  0.8701341713938480  0.4584049793357635   T   T   T
  0.3366496200543343  0.0718816208391258  0.4587151033670851   T   T   T
  0.3313832914234820  0.2700234679737777  0.4611768375040203   T   T   T
  0.3313642727083668  0.4648987747400098  0.4609881122501715   T   T   T
  0.3366174311060966  0.6683878301660637  0.4585188250473703   T   T   T
  0.3366531903290677  0.8701712142279007  0.4583761841303155   T   T   T
  0.5360639505601565  0.0693160341282950  0.4738489186120615   T   T   T
  0.5400388207074471  0.2700398292508124  0.4612193329524927   T   T   T
  0.5400627845466882  0.6735759640202996  0.4607648037455539   T   T   T
  0.5360737814615881  0.8703452405736600  0.4736329177780012   T   T   T
  0.7350074478652288  0.0692828959574966  0.4890564124790709   T   T   T
  0.7360381014301752  0.2689693383461533  0.4808668057393559   T   T   T
  0.7348746089626684  0.4648948629674300  0.4611045658155110   T   T   T
  0.7348771561791564  0.6735372157079793  0.4608308146226639   T   T   T
  0.7360464521523590  0.8706766737120515  0.4805958597467707   T   T   T
  0.9357100770525622  0.0692929600421698  0.4890512491982833   T   T   T
  0.9357125289550526  0.2700163022274744  0.4890699975683090   T   T   T
  0.9356652040048756  0.4689424435574479  0.4737455278561658   T   T   T
  0.9331281129616348  0.6683706650510117  0.4586344595859936   T   T   T
  0.9356592839783847  0.8703272694355648  0.4736534092446077   T   T   T
  0.0021504913095262  0.0027722442324235  0.4808172099938034   T   T   T
  0.0021631017511150  0.2028828226124045  0.4889087363977382   T   T   T
  0.0021642812939289  0.4029551959299215  0.4808107182346730   T   T   T
  0.0006340033178893  0.6008899410979925  0.4615972095032637   T   T   T
  0.0006292976610407  0.8033281071826510  0.4615607974883590   T   T   T
  0.2016189069167737  0.0043118251073614  0.4616469911165794   T   T   T
  0.2000872857407860  0.2020974971608550  0.4731887104901715   T   T   T
  0.2000674920317980  0.4015186780845710  0.4730648948374073   T   T   T
  0.2015970060121099  0.6008747570967936  0.4615259157178920   T   T   T
  0.2021298076149631  0.8028678606668004  0.4556592307108135   T   T   T
  0.4041020860299646  0.0043427174407316  0.4616741589837744   T   T   T
  0.4040362938225632  0.2066888519876933  0.4582857143903747   T   T   T
  0.4040172667126635  0.6008776302218081  0.4580029784130923   T   T   T
  0.4040823128439721  0.8033583580412178  0.4615332308942076   T   T   T
  0.6020256035731520  0.0027873712561904  0.4808399902493800   T   T   T
  0.6034037076839062  0.2021248382014354  0.4732725988339610   T   T   T
  0.6034315867763131  0.8048582931998483  0.4728889032465550   T   T   T
  0.8021212645707233  0.0028185426387336  0.4888161223603734   T   T   T
  0.8021310570633475  0.2028731627477913  0.4889252295650880   T   T   T
  0.8028190486567556  0.4015508840900513  0.4731782025532407   T   T   T
  0.7981992182691046  0.6008490261412748  0.4580945816759292   T   T   T
  0.8028041425807891  0.8048292560768839  0.4729293212239634   T   T   T
  0.3944616345260494  0.3989688111968766  0.4578194913677496   T   T   T
  0.6058459050976969  0.3989639155558275  0.4578179645980282   T   T   T
  0.6058203034791185  0.6102931734107744  0.4575531237242025   T   T   T
  0.5353989719154696  0.4696197493860207  0.5311669088021715   T   T   T
  0.5350670034581322  0.4695241013968874  0.6351731232396055   T   T   T
 
  0.00000000E+00  0.00000000E+00  0.00000000E+00
  0.00000000E+00  0.00000000E+00  0.00000000E+00
  0.00000000E+00  0.00000000E+00  0.00000000E+00
  0.00000000E+00  0.00000000E+00  0.00000000E+00
  0.00000000E+00  0.00000000E+00  0.00000000E+00
  0.00000000E+00  0.00000000E+00  0.00000000E+00
  0.00000000E+00  0.00000000E+00  0.00000000E+00
  0.00000000E+00  0.00000000E+00  0.00000000E+00
  0.00000000E+00  0.00000000E+00  0.00000000E+00
  0.00000000E+00  0.00000000E+00  0.00000000E+00
  0.00000000E+00  0.00000000E+00  0.00000000E+00
  0.00000000E+00  0.00000000E+00  0.00000000E+00
  0.00000000E+00  0.00000000E+00  0.00000000E+00
  0.00000000E+00  0.00000000E+00  0.00000000E+00
  0.00000000E+00  0.00000000E+00  0.00000000E+00
  0.00000000E+00  0.00000000E+00  0.00000000E+00
  0.00000000E+00  0.00000000E+00  0.00000000E+00
  0.00000000E+00  0.00000000E+00  0.00000000E+00
  0.00000000E+00  0.00000000E+00  0.00000000E+00
  0.00000000E+00  0.00000000E+00  0.00000000E+00
  0.00000000E+00  0.00000000E+00  0.00000000E+00
  0.00000000E+00  0.00000000E+00  0.00000000E+00
  0.00000000E+00  0.00000000E+00  0.00000000E+00
  0.00000000E+00  0.00000000E+00  0.00000000E+00
  0.00000000E+00  0.00000000E+00  0.00000000E+00
  0.00000000E+00  0.00000000E+00  0.00000000E+00
  0.00000000E+00  0.00000000E+00  0.00000000E+00
  0.00000000E+00  0.00000000E+00  0.00000000E+00
  0.00000000E+00  0.00000000E+00  0.00000000E+00
  0.00000000E+00  0.00000000E+00  0.00000000E+00
  0.00000000E+00  0.00000000E+00  0.00000000E+00
  0.00000000E+00  0.00000000E+00  0.00000000E+00
  0.00000000E+00  0.00000000E+00  0.00000000E+00
  0.00000000E+00  0.00000000E+00  0.00000000E+00
  0.00000000E+00  0.00000000E+00  0.00000000E+00
  0.00000000E+00  0.00000000E+00  0.00000000E+00
  0.00000000E+00  0.00000000E+00  0.00000000E+00
  0.00000000E+00  0.00000000E+00  0.00000000E+00
  0.00000000E+00  0.00000000E+00  0.00000000E+00
  0.00000000E+00  0.00000000E+00  0.00000000E+00
  0.00000000E+00  0.00000000E+00  0.00000000E+00
  0.00000000E+00  0.00000000E+00  0.00000000E+00
  0.00000000E+00  0.00000000E+00  0.00000000E+00
  0.00000000E+00  0.00000000E+00  0.00000000E+00
  0.00000000E+00  0.00000000E+00  0.00000000E+00
  0.00000000E+00  0.00000000E+00  0.00000000E+00
  0.00000000E+00  0.00000000E+00  0.00000000E+00
  0.00000000E+00  0.00000000E+00  0.00000000E+00
  0.00000000E+00  0.00000000E+00  0.00000000E+00
  0.00000000E+00  0.00000000E+00  0.00000000E+00
  0.00000000E+00  0.00000000E+00  0.00000000E+00
  0.00000000E+00  0.00000000E+00  0.00000000E+00
  0.00000000E+00  0.00000000E+00  0.00000000E+00
  0.00000000E+00  0.00000000E+00  0.00000000E+00
  0.00000000E+00  0.00000000E+00  0.00000000E+00
  0.00000000E+00  0.00000000E+00  0.00000000E+00
  0.00000000E+00  0.00000000E+00  0.00000000E+00
  0.00000000E+00  0.00000000E+00  0.00000000E+00
  0.00000000E+00  0.00000000E+00  0.00000000E+00
  0.00000000E+00  0.00000000E+00  0.00000000E+00
  0.00000000E+00  0.00000000E+00  0.00000000E+00
  0.00000000E+00  0.00000000E+00  0.00000000E+00
  0.00000000E+00  0.00000000E+00  0.00000000E+00
  0.00000000E+00  0.00000000E+00  0.00000000E+00
  0.00000000E+00  0.00000000E+00  0.00000000E+00
  0.00000000E+00  0.00000000E+00  0.00000000E+00
  0.00000000E+00  0.00000000E+00  0.00000000E+00
  0.00000000E+00  0.00000000E+00  0.00000000E+00
  0.00000000E+00  0.00000000E+00  0.00000000E+00
  0.00000000E+00  0.00000000E+00  0.00000000E+00
  0.00000000E+00  0.00000000E+00  0.00000000E+00
  0.00000000E+00  0.00000000E+00  0.00000000E+00
  0.00000000E+00  0.00000000E+00  0.00000000E+00
  0.00000000E+00  0.00000000E+00  0.00000000E+00
  0.00000000E+00  0.00000000E+00  0.00000000E+00
  0.00000000E+00  0.00000000E+00  0.00000000E+00
  0.00000000E+00  0.00000000E+00  0.00000000E+00
  0.00000000E+00  0.00000000E+00  0.00000000E+00
  0.00000000E+00  0.00000000E+00  0.00000000E+00
  0.00000000E+00  0.00000000E+00  0.00000000E+00
  0.00000000E+00  0.00000000E+00  0.00000000E+00
  0.00000000E+00  0.00000000E+00  0.00000000E+00
  0.00000000E+00  0.00000000E+00  0.00000000E+00
  0.00000000E+00  0.00000000E+00  0.00000000E+00
  0.00000000E+00  0.00000000E+00  0.00000000E+00
  0.00000000E+00  0.00000000E+00  0.00000000E+00
  0.00000000E+00  0.00000000E+00  0.00000000E+00
  0.00000000E+00  0.00000000E+00  0.00000000E+00
  0.00000000E+00  0.00000000E+00  0.00000000E+00
  0.00000000E+00  0.00000000E+00  0.00000000E+00
  0.00000000E+00  0.00000000E+00  0.00000000E+00
  0.00000000E+00  0.00000000E+00  0.00000000E+00
  0.00000000E+00  0.00000000E+00  0.00000000E+00
  0.00000000E+00  0.00000000E+00  0.00000000E+00
  0.00000000E+00  0.00000000E+00  0.00000000E+00
  0.00000000E+00  0.00000000E+00  0.00000000E+00
  0.00000000E+00  0.00000000E+00  0.00000000E+00
  0.00000000E+00  0.00000000E+00  0.00000000E+00
  0.00000000E+00  0.00000000E+00  0.00000000E+00
  0.00000000E+00  0.00000000E+00  0.00000000E+00
  0.00000000E+00  0.00000000E+00  0.00000000E+00
  0.00000000E+00  0.00000000E+00  0.00000000E+00
  0.00000000E+00  0.00000000E+00  0.00000000E+00
  0.00000000E+00  0.00000000E+00  0.00000000E+00
  0.00000000E+00  0.00000000E+00  0.00000000E+00
  0.00000000E+00  0.00000000E+00  0.00000000E+00
  0.00000000E+00  0.00000000E+00  0.00000000E+00
  0.00000000E+00  0.00000000E+00  0.00000000E+00
  0.00000000E+00  0.00000000E+00  0.00000000E+00
  0.00000000E+00  0.00000000E+00  0.00000000E+00
  0.00000000E+00  0.00000000E+00  0.00000000E+00
  0.00000000E+00  0.00000000E+00  0.00000000E+00
  0.00000000E+00  0.00000000E+00  0.00000000E+00
  0.00000000E+00  0.00000000E+00  0.00000000E+00
  0.00000000E+00  0.00000000E+00  0.00000000E+00
  0.00000000E+00  0.00000000E+00  0.00000000E+00
  0.00000000E+00  0.00000000E+00  0.00000000E+00
  0.00000000E+00  0.00000000E+00  0.00000000E+00
  0.00000000E+00  0.00000000E+00  0.00000000E+00
  0.00000000E+00  0.00000000E+00  0.00000000E+00
  0.00000000E+00  0.00000000E+00  0.00000000E+00
  0.00000000E+00  0.00000000E+00  0.00000000E+00
  0.00000000E+00  0.00000000E+00  0.00000000E+00
  0.00000000E+00  0.00000000E+00  0.00000000E+00
  0.00000000E+00  0.00000000E+00  0.00000000E+00
  0.00000000E+00  0.00000000E+00  0.00000000E+00
  0.00000000E+00  0.00000000E+00  0.00000000E+00
  0.00000000E+00  0.00000000E+00  0.00000000E+00
  0.00000000E+00  0.00000000E+00  0.00000000E+00
  0.00000000E+00  0.00000000E+00  0.00000000E+00
  0.00000000E+00  0.00000000E+00  0.00000000E+00
  0.00000000E+00  0.00000000E+00  0.00000000E+00
  0.00000000E+00  0.00000000E+00  0.00000000E+00
  0.00000000E+00  0.00000000E+00  0.00000000E+00
  0.00000000E+00  0.00000000E+00  0.00000000E+00
  0.00000000E+00  0.00000000E+00  0.00000000E+00
  0.00000000E+00  0.00000000E+00  0.00000000E+00
  0.00000000E+00  0.00000000E+00  0.00000000E+00
  0.00000000E+00  0.00000000E+00  0.00000000E+00
  0.00000000E+00  0.00000000E+00  0.00000000E+00
  0.00000000E+00  0.00000000E+00  0.00000000E+00
  0.00000000E+00  0.00000000E+00  0.00000000E+00
  0.00000000E+00  0.00000000E+00  0.00000000E+00
  0.00000000E+00  0.00000000E+00  0.00000000E+00
  0.00000000E+00  0.00000000E+00  0.00000000E+00
  0.00000000E+00  0.00000000E+00  0.00000000E+00
  0.00000000E+00  0.00000000E+00  0.00000000E+00
  0.00000000E+00  0.00000000E+00  0.00000000E+00
  0.00000000E+00  0.00000000E+00  0.00000000E+00
  0.00000000E+00  0.00000000E+00  0.00000000E+00
  0.00000000E+00  0.00000000E+00  0.00000000E+00
