Ir(111) surface                         
   1.00000000000000     
    13.6036739348999998    0.0000000000000000    0.0000000000000000
    -6.8018385362000000   11.7811263066999992    0.0000000000000000
     0.0000000000000000    0.0000000000000000   24.3532371521000002
   Ir   C    N    Pt   Os
   100    46     3     1     1
Selective dynamics
Direct
  0.0000000000000000  0.0000000000000000  0.0895158200000026   F   F   F
  0.0000000000000000  0.2000000029999995  0.0895158200000026   F   F   F
  0.0000000000000000  0.4000000059999991  0.0895158200000026   F   F   F
  0.0000000000000000  0.6000000240000034  0.0895158200000026   F   F   F
  0.0000000000000000  0.8000000119999982  0.0895158200000026   F   F   F
  0.2000000029999995  0.0000000000000000  0.0895158200000026   F   F   F
  0.2000000029999995  0.2000000029999995  0.0895158200000026   F   F   F
  0.2000000029999995  0.4000000059999991  0.0895158200000026   F   F   F
  0.2000000029999995  0.6000000240000034  0.0895158200000026   F   F   F
  0.2000000029999995  0.8000000119999982  0.0895158200000026   F   F   F
  0.4000000059999991  0.0000000000000000  0.0895158200000026   F   F   F
  0.4000000059999991  0.2000000029999995  0.0895158200000026   F   F   F
  0.4000000059999991  0.4000000059999991  0.0895158200000026   F   F   F
  0.4000000059999991  0.6000000240000034  0.0895158200000026   F   F   F
  0.4000000059999991  0.8000000119999982  0.0895158200000026   F   F   F
  0.6000000240000034  0.0000000000000000  0.0895158200000026   F   F   F
  0.6000000240000034  0.2000000029999995  0.0895158200000026   F   F   F
  0.6000000240000034  0.4000000059999991  0.0895158200000026   F   F   F
  0.6000000240000034  0.6000000240000034  0.0895158200000026   F   F   F
  0.6000000240000034  0.8000000119999982  0.0895158200000026   F   F   F
  0.8000000119999982  0.0000000000000000  0.0895158200000026   F   F   F
  0.8000000119999982  0.2000000029999995  0.0895158200000026   F   F   F
  0.8000000119999982  0.4000000059999991  0.0895158200000026   F   F   F
  0.8000000119999982  0.6000000240000034  0.0895158200000026   F   F   F
  0.8000000119999982  0.8000000119999982  0.0895158200000026   F   F   F
  0.0666666699999965  0.1333333400000001  0.1807345149999975   F   F   F
  0.0666666699999965  0.3333333429999996  0.1807345149999975   F   F   F
  0.0666666699999965  0.5333333609999968  0.1807345149999975   F   F   F
  0.0666666699999965  0.7333333489999987  0.1807345149999975   F   F   F
  0.0666666699999965  0.9333333370000005  0.1807345149999975   F   F   F
  0.2666666809999967  0.1333333400000001  0.1807345149999975   F   F   F
  0.2666666809999967  0.3333333429999996  0.1807345149999975   F   F   F
  0.2666666809999967  0.5333333609999968  0.1807345149999975   F   F   F
  0.2666666809999967  0.7333333489999987  0.1807345149999975   F   F   F
  0.2666666809999967  0.9333333370000005  0.1807345149999975   F   F   F
  0.4666666689999985  0.1333333400000001  0.1807345149999975   F   F   F
  0.4666666689999985  0.3333333429999996  0.1807345149999975   F   F   F
  0.4666666689999985  0.5333333609999968  0.1807345149999975   F   F   F
  0.4666666689999985  0.7333333489999987  0.1807345149999975   F   F   F
  0.4666666689999985  0.9333333370000005  0.1807345149999975   F   F   F
  0.6666666870000029  0.1333333400000001  0.1807345149999975   F   F   F
  0.6666666870000029  0.3333333429999996  0.1807345149999975   F   F   F
  0.6666666870000029  0.5333333609999968  0.1807345149999975   F   F   F
  0.6666666870000029  0.7333333489999987  0.1807345149999975   F   F   F
  0.6666666870000029  0.9333333370000005  0.1807345149999975   F   F   F
  0.8666666749999976  0.1333333400000001  0.1807345149999975   F   F   F
  0.8666666749999976  0.3333333429999996  0.1807345149999975   F   F   F
  0.8666666749999976  0.5333333609999968  0.1807345149999975   F   F   F
  0.8666666749999976  0.7333333489999987  0.1807345149999975   F   F   F
  0.8666666749999976  0.9333333370000005  0.1807345149999975   F   F   F
  0.1329272723214478  0.0665315084320303  0.2707604700791311   T   T   T
  0.1327816492671637  0.2662433681789739  0.2709655647445411   T   T   T
  0.1341032697104836  0.4663362880225425  0.2716455041238278   T   T   T
  0.1333151960288603  0.6666379259766696  0.2711472136255728   T   T   T
  0.1330887798909272  0.8667787000306815  0.2710472050091471   T   T   T
  0.3326376250952910  0.0661832246751577  0.2705791611096838   T   T   T
  0.3330397854766399  0.2660625360858284  0.2703888179534660   T   T   T
  0.3339266744755019  0.4658591367171277  0.2716073159889513   T   T   T
  0.3336662231633680  0.6657154281208197  0.2715920744535673   T   T   T
  0.3329955841042933  0.8663489581722813  0.2708049015616056   T   T   T
  0.5329870329709794  0.0666707262281028  0.2706815308464416   T   T   T
  0.5332766811593063  0.2666586450428961  0.2706910566268571   T   T   T
  0.5338397437414166  0.4668969341982106  0.2704049682428318   T   T   T
  0.5337013484582608  0.6671381131915388  0.2709804950128670   T   T   T
  0.5330732573853748  0.8667829240034687  0.2708177712399737   T   T   T
  0.7331482235333947  0.0667595223653766  0.2705725113556525   T   T   T
  0.7332186682769851  0.2669277196522094  0.2706735022793584   T   T   T
  0.7337346517230413  0.4672860172097283  0.2705583140811816   T   T   T
  0.7334154550427656  0.6670367996909716  0.2707538360113989   T   T   T
  0.7329169657671607  0.8666129512521127  0.2707507707988577   T   T   T
  0.9333409694328221  0.0670382355793070  0.2707489474098094   T   T   T
  0.9331535517310656  0.2668906429935187  0.2708124062552998   T   T   T
  0.9335627817551568  0.4669809813389741  0.2707908226840228   T   T   T
  0.9331872737473210  0.6669057918835276  0.2710439298814623   T   T   T
  0.9330478138158859  0.8668933310075123  0.2710295524244340   T   T   T
  0.0014661376954195  0.9985116668975623  0.3645049375259703   T   T   T
  0.0007310998654126  0.1982802041301707  0.3638794707156496   T   T   T
  0.0008809925251419  0.3987502632497920  0.3643004475959222   T   T   T
  0.0011292628431967  0.5987113411167414  0.3647295790370156   T   T   T
  0.0012330124332340  0.7987155911080498  0.3647924786711167   T   T   T
  0.2014293038536658  0.9993564327096761  0.3647579139624780   T   T   T
  0.2022617518369715  0.2002001818594769  0.3662943710922795   T   T   T
  0.2043705835935873  0.3990326178909984  0.3653772606865322   T   T   T
  0.2019090402740165  0.5981235431064214  0.3659976026113779   T   T   T
  0.2012065074078022  0.7987752454752035  0.3647286096632991   T   T   T
  0.4010921366622576  0.9985518568508112  0.3641774778833232   T   T   T
  0.4018478525580665  0.1988376251993930  0.3639538692039181   T   T   T
  0.4033565194667853  0.3968230509961967  0.3609281905701577   T   T   T
  0.4006609105694326  0.5960867445431732  0.3651579373906031   T   T   T
  0.4011168557891643  0.7989643257209929  0.3643732490652400   T   T   T
  0.6012276459408695  0.9989234455163515  0.3641354606289790   T   T   T
  0.6013534839131299  0.1985605690023645  0.3635464107920618   T   T   T
  0.6012304925473542  0.3981171736645095  0.3639033915721990   T   T   T
  0.5995288286919268  0.5975572010633491  0.3663479247159102   T   T   T
  0.6016001108383490  0.7990895846296864  0.3639349714772367   T   T   T
  0.8012433839257266  0.9986696374660102  0.3641805076856109   T   T   T
  0.8010093676650490  0.1986737338506231  0.3641309392227519   T   T   T
  0.8014308407258992  0.3988836239308559  0.3641477262363951   T   T   T
  0.8006151613691722  0.5985479034341988  0.3647274350588718   T   T   T
  0.8014188528672872  0.7985000930888746  0.3645014210038252   T   T   T
  0.9675773998545304  0.0298943321757526  0.4484536255134802   T   T   T
  0.9653916097758132  0.2286715808027873  0.4484466055641536   T   T   T
  0.9669571083473707  0.4298357176527349  0.4484111438265349   T   T   T
  0.9687516273651635  0.6304095696710070  0.4486930123490976   T   T   T
  0.9692025337293856  0.8307627032483541  0.4485757838363718   T   T   T
  0.1703941931775466  0.0325874718582535  0.4486142817287760   T   T   T
  0.1614958766892924  0.2296342645226862  0.4476818671211111   T   T   T
  0.1603509379618134  0.4232459274659673  0.4475594546411133   T   T   T
  0.1694248929270781  0.6304691444429587  0.4489817458189083   T   T   T
  0.1695292083183784  0.8311550616975691  0.4486993868183250   T   T   T
  0.3700581478390844  0.0309133840619176  0.4484560289321706   T   T   T
  0.3762553341930734  0.2329169409417230  0.4480957753398676   T   T   T
  0.3767502585334754  0.6391197550039477  0.4475971989368831   T   T   T
  0.3700901642440621  0.8328101570510634  0.4484238934222945   T   T   T
  0.5697182992333397  0.0312143113558573  0.4481761905832739   T   T   T
  0.5705129678222495  0.2294228454754095  0.4482168092581373   T   T   T
  0.5673117333063218  0.4238108237648317  0.4480571505911460   T   T   T
  0.5702702871517878  0.6381696854626323  0.4479173040063725   T   T   T
  0.5711831294544835  0.8343430221239623  0.4484871922400108   T   T   T
  0.7689821241161943  0.0308540100194379  0.4481830821244360   T   T   T
  0.7686281800587814  0.2301408706088979  0.4481675403911838   T   T   T
  0.7690246795050443  0.4298784545242683  0.4484357257244874   T   T   T
  0.7674651861938928  0.6296115049398250  0.4486084294267036   T   T   T
  0.7700113972639325  0.8322837135169280  0.4484486450124352   T   T   T
  0.0294482350694160  0.1630545573469713  0.4483471863607038   T   T   T
  0.0288635238297506  0.3630319061143582  0.4483294009848350   T   T   T
  0.0334879022171601  0.5653156791843552  0.4486127072554187   T   T   T
  0.0341231366078876  0.7658222036007105  0.4484836643759669   T   T   T
  0.0342514872034947  0.9663940527794336  0.4483316763239032   T   T   T
  0.2356807814605354  0.1696442240020617  0.4480298603978721   T   T   T
  0.2347344805364975  0.5651529398498436  0.4485681189404850   T   T   T
  0.2345851904596020  0.7663808752556240  0.4486219523129525   T   T   T
  0.2348476443834243  0.9667244359565000  0.4484713691101476   T   T   T
  0.4363739328222052  0.1648259420164267  0.4482244740617611   T   T   T
  0.4368665651586253  0.7707564264988729  0.4483802949982128   T   T   T
  0.4347191788712360  0.9664556836353762  0.4482765083037630   T   T   T
  0.6346545731741753  0.1652042196744663  0.4481325768886802   T   T   T
  0.6352074412564582  0.3635791833882754  0.4482070021679239   T   T   T
  0.6305582692485873  0.5643436211966881  0.4480290133955381   T   T   T
  0.6368183191923745  0.7703122679825641  0.4483767847810188   T   T   T
  0.6350650270507462  0.9670084921460131  0.4481336275214464   T   T   T
  0.8328016471154527  0.1647843489335959  0.4481226695346083   T   T   T
  0.8334123839045355  0.3651961386529044  0.4482676748308864   T   T   T
  0.8332453304143093  0.5651132301650202  0.4484619741762103   T   T   T
  0.8336002197264166  0.7657012492453008  0.4483251504694015   T   T   T
  0.8341120780933934  0.9657527277118793  0.4482691795353452   T   T   T
  0.2161389380445713  0.3574075316950832  0.4528202956401314   T   T   T
  0.4411265563110131  0.3592660359564491  0.4516225613495623   T   T   T
  0.4428110501363195  0.5833496664311182  0.4539619118553893   T   T   T
  0.3694683821373678  0.4335147365751651  0.5102449332372597   T   T   T
  0.3651758879013868  0.4269833067284216  0.6044306562956414   T   T   T
 
  0.00000000E+00  0.00000000E+00  0.00000000E+00
  0.00000000E+00  0.00000000E+00  0.00000000E+00
  0.00000000E+00  0.00000000E+00  0.00000000E+00
  0.00000000E+00  0.00000000E+00  0.00000000E+00
  0.00000000E+00  0.00000000E+00  0.00000000E+00
  0.00000000E+00  0.00000000E+00  0.00000000E+00
  0.00000000E+00  0.00000000E+00  0.00000000E+00
  0.00000000E+00  0.00000000E+00  0.00000000E+00
  0.00000000E+00  0.00000000E+00  0.00000000E+00
  0.00000000E+00  0.00000000E+00  0.00000000E+00
  0.00000000E+00  0.00000000E+00  0.00000000E+00
  0.00000000E+00  0.00000000E+00  0.00000000E+00
  0.00000000E+00  0.00000000E+00  0.00000000E+00
  0.00000000E+00  0.00000000E+00  0.00000000E+00
  0.00000000E+00  0.00000000E+00  0.00000000E+00
  0.00000000E+00  0.00000000E+00  0.00000000E+00
  0.00000000E+00  0.00000000E+00  0.00000000E+00
  0.00000000E+00  0.00000000E+00  0.00000000E+00
  0.00000000E+00  0.00000000E+00  0.00000000E+00
  0.00000000E+00  0.00000000E+00  0.00000000E+00
  0.00000000E+00  0.00000000E+00  0.00000000E+00
  0.00000000E+00  0.00000000E+00  0.00000000E+00
  0.00000000E+00  0.00000000E+00  0.00000000E+00
  0.00000000E+00  0.00000000E+00  0.00000000E+00
  0.00000000E+00  0.00000000E+00  0.00000000E+00
  0.00000000E+00  0.00000000E+00  0.00000000E+00
  0.00000000E+00  0.00000000E+00  0.00000000E+00
  0.00000000E+00  0.00000000E+00  0.00000000E+00
  0.00000000E+00  0.00000000E+00  0.00000000E+00
  0.00000000E+00  0.00000000E+00  0.00000000E+00
  0.00000000E+00  0.00000000E+00  0.00000000E+00
  0.00000000E+00  0.00000000E+00  0.00000000E+00
  0.00000000E+00  0.00000000E+00  0.00000000E+00
  0.00000000E+00  0.00000000E+00  0.00000000E+00
  0.00000000E+00  0.00000000E+00  0.00000000E+00
  0.00000000E+00  0.00000000E+00  0.00000000E+00
  0.00000000E+00  0.00000000E+00  0.00000000E+00
  0.00000000E+00  0.00000000E+00  0.00000000E+00
  0.00000000E+00  0.00000000E+00  0.00000000E+00
  0.00000000E+00  0.00000000E+00  0.00000000E+00
  0.00000000E+00  0.00000000E+00  0.00000000E+00
  0.00000000E+00  0.00000000E+00  0.00000000E+00
  0.00000000E+00  0.00000000E+00  0.00000000E+00
  0.00000000E+00  0.00000000E+00  0.00000000E+00
  0.00000000E+00  0.00000000E+00  0.00000000E+00
  0.00000000E+00  0.00000000E+00  0.00000000E+00
  0.00000000E+00  0.00000000E+00  0.00000000E+00
  0.00000000E+00  0.00000000E+00  0.00000000E+00
  0.00000000E+00  0.00000000E+00  0.00000000E+00
  0.00000000E+00  0.00000000E+00  0.00000000E+00
  0.00000000E+00  0.00000000E+00  0.00000000E+00
  0.00000000E+00  0.00000000E+00  0.00000000E+00
  0.00000000E+00  0.00000000E+00  0.00000000E+00
  0.00000000E+00  0.00000000E+00  0.00000000E+00
  0.00000000E+00  0.00000000E+00  0.00000000E+00
  0.00000000E+00  0.00000000E+00  0.00000000E+00
  0.00000000E+00  0.00000000E+00  0.00000000E+00
  0.00000000E+00  0.00000000E+00  0.00000000E+00
  0.00000000E+00  0.00000000E+00  0.00000000E+00
  0.00000000E+00  0.00000000E+00  0.00000000E+00
  0.00000000E+00  0.00000000E+00  0.00000000E+00
  0.00000000E+00  0.00000000E+00  0.00000000E+00
  0.00000000E+00  0.00000000E+00  0.00000000E+00
  0.00000000E+00  0.00000000E+00  0.00000000E+00
  0.00000000E+00  0.00000000E+00  0.00000000E+00
  0.00000000E+00  0.00000000E+00  0.00000000E+00
  0.00000000E+00  0.00000000E+00  0.00000000E+00
  0.00000000E+00  0.00000000E+00  0.00000000E+00
  0.00000000E+00  0.00000000E+00  0.00000000E+00
  0.00000000E+00  0.00000000E+00  0.00000000E+00
  0.00000000E+00  0.00000000E+00  0.00000000E+00
  0.00000000E+00  0.00000000E+00  0.00000000E+00
  0.00000000E+00  0.00000000E+00  0.00000000E+00
  0.00000000E+00  0.00000000E+00  0.00000000E+00
  0.00000000E+00  0.00000000E+00  0.00000000E+00
  0.00000000E+00  0.00000000E+00  0.00000000E+00
  0.00000000E+00  0.00000000E+00  0.00000000E+00
  0.00000000E+00  0.00000000E+00  0.00000000E+00
  0.00000000E+00  0.00000000E+00  0.00000000E+00
  0.00000000E+00  0.00000000E+00  0.00000000E+00
  0.00000000E+00  0.00000000E+00  0.00000000E+00
  0.00000000E+00  0.00000000E+00  0.00000000E+00
  0.00000000E+00  0.00000000E+00  0.00000000E+00
  0.00000000E+00  0.00000000E+00  0.00000000E+00
  0.00000000E+00  0.00000000E+00  0.00000000E+00
  0.00000000E+00  0.00000000E+00  0.00000000E+00
  0.00000000E+00  0.00000000E+00  0.00000000E+00
  0.00000000E+00  0.00000000E+00  0.00000000E+00
  0.00000000E+00  0.00000000E+00  0.00000000E+00
  0.00000000E+00  0.00000000E+00  0.00000000E+00
  0.00000000E+00  0.00000000E+00  0.00000000E+00
  0.00000000E+00  0.00000000E+00  0.00000000E+00
  0.00000000E+00  0.00000000E+00  0.00000000E+00
  0.00000000E+00  0.00000000E+00  0.00000000E+00
  0.00000000E+00  0.00000000E+00  0.00000000E+00
  0.00000000E+00  0.00000000E+00  0.00000000E+00
  0.00000000E+00  0.00000000E+00  0.00000000E+00
  0.00000000E+00  0.00000000E+00  0.00000000E+00
  0.00000000E+00  0.00000000E+00  0.00000000E+00
  0.00000000E+00  0.00000000E+00  0.00000000E+00
  0.00000000E+00  0.00000000E+00  0.00000000E+00
  0.00000000E+00  0.00000000E+00  0.00000000E+00
  0.00000000E+00  0.00000000E+00  0.00000000E+00
  0.00000000E+00  0.00000000E+00  0.00000000E+00
  0.00000000E+00  0.00000000E+00  0.00000000E+00
  0.00000000E+00  0.00000000E+00  0.00000000E+00
  0.00000000E+00  0.00000000E+00  0.00000000E+00
  0.00000000E+00  0.00000000E+00  0.00000000E+00
  0.00000000E+00  0.00000000E+00  0.00000000E+00
  0.00000000E+00  0.00000000E+00  0.00000000E+00
  0.00000000E+00  0.00000000E+00  0.00000000E+00
  0.00000000E+00  0.00000000E+00  0.00000000E+00
  0.00000000E+00  0.00000000E+00  0.00000000E+00
  0.00000000E+00  0.00000000E+00  0.00000000E+00
  0.00000000E+00  0.00000000E+00  0.00000000E+00
  0.00000000E+00  0.00000000E+00  0.00000000E+00
  0.00000000E+00  0.00000000E+00  0.00000000E+00
  0.00000000E+00  0.00000000E+00  0.00000000E+00
  0.00000000E+00  0.00000000E+00  0.00000000E+00
  0.00000000E+00  0.00000000E+00  0.00000000E+00
  0.00000000E+00  0.00000000E+00  0.00000000E+00
  0.00000000E+00  0.00000000E+00  0.00000000E+00
  0.00000000E+00  0.00000000E+00  0.00000000E+00
  0.00000000E+00  0.00000000E+00  0.00000000E+00
  0.00000000E+00  0.00000000E+00  0.00000000E+00
  0.00000000E+00  0.00000000E+00  0.00000000E+00
  0.00000000E+00  0.00000000E+00  0.00000000E+00
  0.00000000E+00  0.00000000E+00  0.00000000E+00
  0.00000000E+00  0.00000000E+00  0.00000000E+00
  0.00000000E+00  0.00000000E+00  0.00000000E+00
  0.00000000E+00  0.00000000E+00  0.00000000E+00
  0.00000000E+00  0.00000000E+00  0.00000000E+00
  0.00000000E+00  0.00000000E+00  0.00000000E+00
  0.00000000E+00  0.00000000E+00  0.00000000E+00
  0.00000000E+00  0.00000000E+00  0.00000000E+00
  0.00000000E+00  0.00000000E+00  0.00000000E+00
  0.00000000E+00  0.00000000E+00  0.00000000E+00
  0.00000000E+00  0.00000000E+00  0.00000000E+00
  0.00000000E+00  0.00000000E+00  0.00000000E+00
  0.00000000E+00  0.00000000E+00  0.00000000E+00
  0.00000000E+00  0.00000000E+00  0.00000000E+00
  0.00000000E+00  0.00000000E+00  0.00000000E+00
  0.00000000E+00  0.00000000E+00  0.00000000E+00
  0.00000000E+00  0.00000000E+00  0.00000000E+00
  0.00000000E+00  0.00000000E+00  0.00000000E+00
  0.00000000E+00  0.00000000E+00  0.00000000E+00
  0.00000000E+00  0.00000000E+00  0.00000000E+00
  0.00000000E+00  0.00000000E+00  0.00000000E+00
  0.00000000E+00  0.00000000E+00  0.00000000E+00
  0.00000000E+00  0.00000000E+00  0.00000000E+00
  0.00000000E+00  0.00000000E+00  0.00000000E+00
