Mg0(001) bulk                           
   1.00000000000000     
    17.1110649109000015    0.0000000000000000    0.0000000000000000
     0.0000000000000000    8.5555324553999998    0.0000000000000000
     0.0000000000000000    0.0000000000000000   22.3424186706999990
   Mg   O    C    N    Pt   Os
    64    64    52     3     1     1
Selective dynamics
Direct
  0.0000000000000000  0.0000000000000000  0.0500000010000008   F   F   F
  0.0000000000000000  0.5000000000000000  0.0500000010000008   F   F   F
  0.2500000000000000  0.0000000000000000  0.0500000010000008   F   F   F
  0.2500000000000000  0.5000000000000000  0.0500000010000008   F   F   F
  0.5000000000000000  0.0000000000000000  0.0500000010000008   F   F   F
  0.5000000000000000  0.5000000000000000  0.0500000010000008   F   F   F
  0.7500000000000000  0.0000000000000000  0.0500000010000008   F   F   F
  0.7500000000000000  0.5000000000000000  0.0500000010000008   F   F   F
  0.1250000000000000  0.2500000000000000  0.0500000010000008   F   F   F
  0.1250000000000000  0.7500000000000000  0.0500000010000008   F   F   F
  0.3750000000000000  0.2500000000000000  0.0500000010000008   F   F   F
  0.3750000000000000  0.7500000000000000  0.0500000010000008   F   F   F
  0.6250000000000000  0.2500000000000000  0.0500000010000008   F   F   F
  0.6250000000000000  0.7500000000000000  0.0500000010000008   F   F   F
  0.8750000000000000  0.2500000000000000  0.0500000010000008   F   F   F
  0.8750000000000000  0.7500000000000000  0.0500000010000008   F   F   F
  0.0000000000000000  0.2500000000000000  0.1457319410000011   F   F   F
  0.0000000000000000  0.7500000000000000  0.1457319410000011   F   F   F
  0.2500000000000000  0.2500000000000000  0.1457319410000011   F   F   F
  0.2500000000000000  0.7500000000000000  0.1457319410000011   F   F   F
  0.5000000000000000  0.2500000000000000  0.1457319410000011   F   F   F
  0.5000000000000000  0.7500000000000000  0.1457319410000011   F   F   F
  0.7500000000000000  0.2500000000000000  0.1457319410000011   F   F   F
  0.7500000000000000  0.7500000000000000  0.1457319410000011   F   F   F
  0.1250000000000000  0.0000000000000000  0.1457319410000011   F   F   F
  0.1250000000000000  0.5000000000000000  0.1457319410000011   F   F   F
  0.3750000000000000  0.0000000000000000  0.1457319410000011   F   F   F
  0.3750000000000000  0.5000000000000000  0.1457319410000011   F   F   F
  0.6250000000000000  0.0000000000000000  0.1457319410000011   F   F   F
  0.6250000000000000  0.5000000000000000  0.1457319410000011   F   F   F
  0.8750000000000000  0.0000000000000000  0.1457319410000011   F   F   F
  0.8750000000000000  0.5000000000000000  0.1457319410000011   F   F   F
  0.0000085861442823  0.0000086092891493  0.2390524661702412   T   T   T
  0.0000094464551152  0.4999873637008281  0.2390455416085386   T   T   T
  0.2500675182145721  0.0001163533237000  0.2391601498503001   T   T   T
  0.2500554111153706  0.4999963344697526  0.2391473861292981   T   T   T
  0.5000460418554341  0.0003933742112331  0.2395443141792035   T   T   T
  0.5000133380381822  0.4998062942654357  0.2394652167462195   T   T   T
  0.7499893623745528  0.0000720575671724  0.2391943781945186   T   T   T
  0.7499937596971130  0.4999512722393454  0.2391961322112660   T   T   T
  0.1250738844835427  0.2500051015894432  0.2390952329097551   T   T   T
  0.1250542420370314  0.7500449575465369  0.2390795424369002   T   T   T
  0.3752190350686599  0.2500023025585434  0.2394272819119475   T   T   T
  0.3751110671685953  0.7500985273370976  0.2393278180679186   T   T   T
  0.6248722110170024  0.2499871702113412  0.2394206913266999   T   T   T
  0.6249239081598161  0.7500438877326165  0.2393474561200499   T   T   T
  0.8749809232398308  0.2500083135750221  0.2391130084744330   T   T   T
  0.8750030668261600  0.7500431177095528  0.2390988116955690   T   T   T
  0.9999744973194518  0.2498985664329006  0.3310253802127161   T   T   T
  0.9999780566886758  0.7499253634219243  0.3310249481117535   T   T   T
  0.2498756011013200  0.2499454554133447  0.3315056113915847   T   T   T
  0.2498252913856823  0.7500727314873992  0.3313628121322671   T   T   T
  0.5002329195596957  0.2505765264914764  0.3330768427034326   T   T   T
  0.5000772856020768  0.7499416697483652  0.3320375918302529   T   T   T
  0.7502592876542463  0.2498613710172737  0.3314550536444364   T   T   T
  0.7503175772071383  0.7500032069588675  0.3313039389824949   T   T   T
  0.1251083114492297  0.9999602849071617  0.3311795095812388   T   T   T
  0.1250935014494801  0.4999427344496272  0.3311368141192287   T   T   T
  0.3749037106484474  0.0001497286595042  0.3316391509467333   T   T   T
  0.3749046244847923  0.4999153327651081  0.3314300643513581   T   T   T
  0.6250775713256259  0.0000510765433838  0.3317653036262657   T   T   T
  0.6249780090050766  0.4998326454296391  0.3315811432687605   T   T   T
  0.8751179093704503  0.9999565388059789  0.3313293247914184   T   T   T
  0.8751336034548288  0.4999201344165297  0.3312862934670763   T   T   T
  0.0000000000000000  0.2500000000000000  0.0500000010000008   F   F   F
  0.0000000000000000  0.7500000000000000  0.0500000010000008   F   F   F
  0.2500000000000000  0.2500000000000000  0.0500000010000008   F   F   F
  0.2500000000000000  0.7500000000000000  0.0500000010000008   F   F   F
  0.5000000000000000  0.2500000000000000  0.0500000010000008   F   F   F
  0.5000000000000000  0.7500000000000000  0.0500000010000008   F   F   F
  0.7500000000000000  0.2500000000000000  0.0500000010000008   F   F   F
  0.7500000000000000  0.7500000000000000  0.0500000010000008   F   F   F
  0.1250000000000000  0.0000000000000000  0.0500000010000008   F   F   F
  0.1250000000000000  0.5000000000000000  0.0500000010000008   F   F   F
  0.3750000000000000  0.0000000000000000  0.0500000010000008   F   F   F
  0.3750000000000000  0.5000000000000000  0.0500000010000008   F   F   F
  0.6250000000000000  0.0000000000000000  0.0500000010000008   F   F   F
  0.6250000000000000  0.5000000000000000  0.0500000010000008   F   F   F
  0.8750000000000000  0.0000000000000000  0.0500000010000008   F   F   F
  0.8750000000000000  0.5000000000000000  0.0500000010000008   F   F   F
  0.0000000000000000  0.0000000000000000  0.1457319410000011   F   F   F
  0.0000000000000000  0.5000000000000000  0.1457319410000011   F   F   F
  0.2500000000000000  0.0000000000000000  0.1457319410000011   F   F   F
  0.2500000000000000  0.5000000000000000  0.1457319410000011   F   F   F
  0.5000000000000000  0.0000000000000000  0.1457319410000011   F   F   F
  0.5000000000000000  0.5000000000000000  0.1457319410000011   F   F   F
  0.7500000000000000  0.0000000000000000  0.1457319410000011   F   F   F
  0.7500000000000000  0.5000000000000000  0.1457319410000011   F   F   F
  0.1250000000000000  0.2500000000000000  0.1457319410000011   F   F   F
  0.1250000000000000  0.7500000000000000  0.1457319410000011   F   F   F
  0.3750000000000000  0.2500000000000000  0.1457319410000011   F   F   F
  0.3750000000000000  0.7500000000000000  0.1457319410000011   F   F   F
  0.6250000000000000  0.2500000000000000  0.1457319410000011   F   F   F
  0.6250000000000000  0.7500000000000000  0.1457319410000011   F   F   F
  0.8750000000000000  0.2500000000000000  0.1457319410000011   F   F   F
  0.8750000000000000  0.7500000000000000  0.1457319410000011   F   F   F
  0.0000230429279015  0.2500019011078383  0.2387293415372432   T   T   T
  0.0000213374262031  0.7499981705703020  0.2387227193719359   T   T   T
  0.2501573815908469  0.2500822767703804  0.2389138269678380   T   T   T
  0.2501561161874577  0.7500632822136335  0.2388743598360124   T   T   T
  0.5000405155730392  0.2501164317462838  0.2394107888973594   T   T   T
  0.5000291032547985  0.7500786704557829  0.2392323312006776   T   T   T
  0.7499039545051185  0.2500514576697402  0.2389248235735642   T   T   T
  0.7498773654317306  0.7499880814736084  0.2389034550229709   T   T   T
  0.1250570548183866  0.0000290463617257  0.2387686768255882   T   T   T
  0.1250703564072884  0.5000271093577218  0.2387618338812597   T   T   T
  0.3751697605997135  0.0000401377693739  0.2390949824710025   T   T   T
  0.3751490762487035  0.5000583724957428  0.2390242012667953   T   T   T
  0.6249302630416194  0.9999736173970859  0.2391322391756405   T   T   T
  0.6249205266508876  0.5000617200400161  0.2390799241008116   T   T   T
  0.8749513799128837  0.0000240214718019  0.2388086748813371   T   T   T
  0.8749358183981190  0.5000388403897430  0.2388066624984935   T   T   T
  0.0000571403596346  0.9999916467826271  0.3334184769501510   T   T   T
  0.0000569338321062  0.5000024155973684  0.3333844279662609   T   T   T
  0.2499660730077387  0.0001085078034398  0.3335129516417658   T   T   T
  0.2499795867099689  0.5002567915282098  0.3335699984133594   T   T   T
  0.5000493588092703  0.0000414733121261  0.3344883059400613   T   T   T
  0.4999527307723182  0.5004311529453264  0.3344556958328129   T   T   T
  0.7501199010292278  0.9999677485109326  0.3337194801145047   T   T   T
  0.7501160093697482  0.5001544592492434  0.3338420100052440   T   T   T
  0.1249780618493174  0.2500941179451704  0.3333712475214007   T   T   T
  0.1249740823525555  0.7500907865486387  0.3333496058519469   T   T   T
  0.3748710009726825  0.2502767675132681  0.3343228982100676   T   T   T
  0.3749106132256836  0.7499885838090848  0.3342660115015134   T   T   T
  0.6253205485589131  0.2502666768318836  0.3342195352671090   T   T   T
  0.6251619200350635  0.7498335831990304  0.3343284781025419   T   T   T
  0.8751184798692533  0.2501204504164752  0.3333455475897547   T   T   T
  0.8751170235148548  0.7501220130930027  0.3333342763786319   T   T   T
  0.0167266380656686  0.9566755019160210  0.4756779724527753   T   T   T
  0.1598096246133833  0.9568694813706003  0.4750216215974031   T   T   T
  0.3031672861683877  0.9570813687768028  0.4769256146844769   T   T   T
  0.4456895119705510  0.9519903993674762  0.4807756761942514   T   T   T
  0.5877088972331808  0.9521312189695372  0.4805841182113872   T   T   T
  0.7302965585223374  0.9571264463583430  0.4774955217692117   T   T   T
  0.8735882910737222  0.9569260204451047  0.4749703427133379   T   T   T
  0.0167440829356636  0.1231805358686982  0.4755269898336872   T   T   T
  0.1601723217866071  0.1232215820083522  0.4751461315376197   T   T   T
  0.3044812134378311  0.1243600153458127  0.4779967834022140   T   T   T
  0.4477224071357790  0.1179990935537979  0.4811534322971459   T   T   T
  0.5856364422340490  0.1181894204488003  0.4808499047612753   T   T   T
  0.7289996550184602  0.1244435849942953  0.4783568727609362   T   T   T
  0.8732086198937111  0.1232865076800971  0.4751004890246201   T   T   T
  0.0167431933198150  0.4565742728714867  0.4752634538335516   T   T   T
  0.1598235550889019  0.4565859195287095  0.4742566029031989   T   T   T
  0.3025958185816708  0.4564462272697941  0.4773048394388915   T   T   T
  0.7309326352291101  0.4564820895283239  0.4779896992432265   T   T   T
  0.8736084620908511  0.4566454338540438  0.4742779409514563   T   T   T
  0.0167441606270661  0.6230791489254210  0.4752192672422402   T   T   T
  0.1595848583577116  0.6231711706267901  0.4744899302160027   T   T   T
  0.3021235654313910  0.6227083812125715  0.4772738637688453   T   T   T
  0.4433054565474402  0.6196589780076945  0.4872535133961153   T   T   T
  0.5901062908163432  0.6197647899666446  0.4870674036833413   T   T   T
  0.7313806826841098  0.6228012758316612  0.4779754258247070   T   T   T
  0.8738019597310626  0.6232378848174146  0.4745081072532086   T   T   T
  0.0884268277259811  0.2065895763590946  0.4753043951854094   T   T   T
  0.2320361018013325  0.2065329667955488  0.4756808162593251   T   T   T
  0.3764379406304405  0.2071921329742497  0.4818170541806400   T   T   T
  0.6569853292498787  0.2073690767515710  0.4816255883629769   T   T   T
  0.8013952194242545  0.2065695653513349  0.4761713099874364   T   T   T
  0.9450191272439441  0.2066810757568437  0.4750193368591281   T   T   T
  0.0882487489621485  0.3730853335397734  0.4750503455787639   T   T   T
  0.2313850208233089  0.3724944428822587  0.4747676636664337   T   T   T
  0.3744985608957810  0.3758882040861219  0.4839642568699745   T   T   T
  0.6590070164041474  0.3759342065365894  0.4839167169980250   T   T   T
  0.8020594723183583  0.3725525812301984  0.4753518502965688   T   T   T
  0.9452229837518691  0.3731215862100412  0.4748105667068048   T   T   T
  0.0881591199196738  0.7066268048381232  0.4751568503800482   T   T   T
  0.2310359651319855  0.7071396072447382  0.4749681915025848   T   T   T
  0.3733154542535067  0.7055927214623524  0.4797747374189006   T   T   T
  0.5167050294838316  0.7002902611160764  0.4873882519686620   T   T   T
  0.6601650005228333  0.7057726620309164  0.4800883017164528   T   T   T
  0.8023953129970608  0.7071716203026631  0.4756149930544005   T   T   T
  0.9452833352065955  0.7067228114877708  0.4748559278122030   T   T   T
  0.0882375455898951  0.8732452262079873  0.4754267862990771   T   T   T
  0.2314923189423441  0.8737865754488626  0.4751935820144114   T   T   T
  0.3738572646664340  0.8716463518415514  0.4788531438927578   T   T   T
  0.5166961481371947  0.8663144992889775  0.4827516252692073   T   T   T
  0.6596205259890915  0.8717827412241418  0.4791203378164698   T   T   T
  0.8019079785054303  0.8738253258454479  0.4757473617911072   T   T   T
  0.9451985269739710  0.8732898642191531  0.4751569222854901   T   T   T
  0.4400301905280770  0.4620709106886643  0.4947184622680006   T   T   T
  0.5932048103191679  0.4620395869415020  0.4939530259061094   T   T   T
  0.5166490038578878  0.1951539701610886  0.4817546712206641   T   T   T
  0.5169720540168383  0.3714437860163582  0.5586128453930699   T   T   T
  0.5185207463449774  0.3315476596361020  0.6592717994144257   T   T   T
 
  0.00000000E+00  0.00000000E+00  0.00000000E+00
  0.00000000E+00  0.00000000E+00  0.00000000E+00
  0.00000000E+00  0.00000000E+00  0.00000000E+00
  0.00000000E+00  0.00000000E+00  0.00000000E+00
  0.00000000E+00  0.00000000E+00  0.00000000E+00
  0.00000000E+00  0.00000000E+00  0.00000000E+00
  0.00000000E+00  0.00000000E+00  0.00000000E+00
  0.00000000E+00  0.00000000E+00  0.00000000E+00
  0.00000000E+00  0.00000000E+00  0.00000000E+00
  0.00000000E+00  0.00000000E+00  0.00000000E+00
  0.00000000E+00  0.00000000E+00  0.00000000E+00
  0.00000000E+00  0.00000000E+00  0.00000000E+00
  0.00000000E+00  0.00000000E+00  0.00000000E+00
  0.00000000E+00  0.00000000E+00  0.00000000E+00
  0.00000000E+00  0.00000000E+00  0.00000000E+00
  0.00000000E+00  0.00000000E+00  0.00000000E+00
  0.00000000E+00  0.00000000E+00  0.00000000E+00
  0.00000000E+00  0.00000000E+00  0.00000000E+00
  0.00000000E+00  0.00000000E+00  0.00000000E+00
  0.00000000E+00  0.00000000E+00  0.00000000E+00
  0.00000000E+00  0.00000000E+00  0.00000000E+00
  0.00000000E+00  0.00000000E+00  0.00000000E+00
  0.00000000E+00  0.00000000E+00  0.00000000E+00
  0.00000000E+00  0.00000000E+00  0.00000000E+00
  0.00000000E+00  0.00000000E+00  0.00000000E+00
  0.00000000E+00  0.00000000E+00  0.00000000E+00
  0.00000000E+00  0.00000000E+00  0.00000000E+00
  0.00000000E+00  0.00000000E+00  0.00000000E+00
  0.00000000E+00  0.00000000E+00  0.00000000E+00
  0.00000000E+00  0.00000000E+00  0.00000000E+00
  0.00000000E+00  0.00000000E+00  0.00000000E+00
  0.00000000E+00  0.00000000E+00  0.00000000E+00
  0.00000000E+00  0.00000000E+00  0.00000000E+00
  0.00000000E+00  0.00000000E+00  0.00000000E+00
  0.00000000E+00  0.00000000E+00  0.00000000E+00
  0.00000000E+00  0.00000000E+00  0.00000000E+00
  0.00000000E+00  0.00000000E+00  0.00000000E+00
  0.00000000E+00  0.00000000E+00  0.00000000E+00
  0.00000000E+00  0.00000000E+00  0.00000000E+00
  0.00000000E+00  0.00000000E+00  0.00000000E+00
  0.00000000E+00  0.00000000E+00  0.00000000E+00
  0.00000000E+00  0.00000000E+00  0.00000000E+00
  0.00000000E+00  0.00000000E+00  0.00000000E+00
  0.00000000E+00  0.00000000E+00  0.00000000E+00
  0.00000000E+00  0.00000000E+00  0.00000000E+00
  0.00000000E+00  0.00000000E+00  0.00000000E+00
  0.00000000E+00  0.00000000E+00  0.00000000E+00
  0.00000000E+00  0.00000000E+00  0.00000000E+00
  0.00000000E+00  0.00000000E+00  0.00000000E+00
  0.00000000E+00  0.00000000E+00  0.00000000E+00
  0.00000000E+00  0.00000000E+00  0.00000000E+00
  0.00000000E+00  0.00000000E+00  0.00000000E+00
  0.00000000E+00  0.00000000E+00  0.00000000E+00
  0.00000000E+00  0.00000000E+00  0.00000000E+00
  0.00000000E+00  0.00000000E+00  0.00000000E+00
  0.00000000E+00  0.00000000E+00  0.00000000E+00
  0.00000000E+00  0.00000000E+00  0.00000000E+00
  0.00000000E+00  0.00000000E+00  0.00000000E+00
  0.00000000E+00  0.00000000E+00  0.00000000E+00
  0.00000000E+00  0.00000000E+00  0.00000000E+00
  0.00000000E+00  0.00000000E+00  0.00000000E+00
  0.00000000E+00  0.00000000E+00  0.00000000E+00
  0.00000000E+00  0.00000000E+00  0.00000000E+00
  0.00000000E+00  0.00000000E+00  0.00000000E+00
  0.00000000E+00  0.00000000E+00  0.00000000E+00
  0.00000000E+00  0.00000000E+00  0.00000000E+00
  0.00000000E+00  0.00000000E+00  0.00000000E+00
  0.00000000E+00  0.00000000E+00  0.00000000E+00
  0.00000000E+00  0.00000000E+00  0.00000000E+00
  0.00000000E+00  0.00000000E+00  0.00000000E+00
  0.00000000E+00  0.00000000E+00  0.00000000E+00
  0.00000000E+00  0.00000000E+00  0.00000000E+00
  0.00000000E+00  0.00000000E+00  0.00000000E+00
  0.00000000E+00  0.00000000E+00  0.00000000E+00
  0.00000000E+00  0.00000000E+00  0.00000000E+00
  0.00000000E+00  0.00000000E+00  0.00000000E+00
  0.00000000E+00  0.00000000E+00  0.00000000E+00
  0.00000000E+00  0.00000000E+00  0.00000000E+00
  0.00000000E+00  0.00000000E+00  0.00000000E+00
  0.00000000E+00  0.00000000E+00  0.00000000E+00
  0.00000000E+00  0.00000000E+00  0.00000000E+00
  0.00000000E+00  0.00000000E+00  0.00000000E+00
  0.00000000E+00  0.00000000E+00  0.00000000E+00
  0.00000000E+00  0.00000000E+00  0.00000000E+00
  0.00000000E+00  0.00000000E+00  0.00000000E+00
  0.00000000E+00  0.00000000E+00  0.00000000E+00
  0.00000000E+00  0.00000000E+00  0.00000000E+00
  0.00000000E+00  0.00000000E+00  0.00000000E+00
  0.00000000E+00  0.00000000E+00  0.00000000E+00
  0.00000000E+00  0.00000000E+00  0.00000000E+00
  0.00000000E+00  0.00000000E+00  0.00000000E+00
  0.00000000E+00  0.00000000E+00  0.00000000E+00
  0.00000000E+00  0.00000000E+00  0.00000000E+00
  0.00000000E+00  0.00000000E+00  0.00000000E+00
  0.00000000E+00  0.00000000E+00  0.00000000E+00
  0.00000000E+00  0.00000000E+00  0.00000000E+00
  0.00000000E+00  0.00000000E+00  0.00000000E+00
  0.00000000E+00  0.00000000E+00  0.00000000E+00
  0.00000000E+00  0.00000000E+00  0.00000000E+00
  0.00000000E+00  0.00000000E+00  0.00000000E+00
  0.00000000E+00  0.00000000E+00  0.00000000E+00
  0.00000000E+00  0.00000000E+00  0.00000000E+00
  0.00000000E+00  0.00000000E+00  0.00000000E+00
  0.00000000E+00  0.00000000E+00  0.00000000E+00
  0.00000000E+00  0.00000000E+00  0.00000000E+00
  0.00000000E+00  0.00000000E+00  0.00000000E+00
  0.00000000E+00  0.00000000E+00  0.00000000E+00
  0.00000000E+00  0.00000000E+00  0.00000000E+00
  0.00000000E+00  0.00000000E+00  0.00000000E+00
  0.00000000E+00  0.00000000E+00  0.00000000E+00
  0.00000000E+00  0.00000000E+00  0.00000000E+00
  0.00000000E+00  0.00000000E+00  0.00000000E+00
  0.00000000E+00  0.00000000E+00  0.00000000E+00
  0.00000000E+00  0.00000000E+00  0.00000000E+00
  0.00000000E+00  0.00000000E+00  0.00000000E+00
  0.00000000E+00  0.00000000E+00  0.00000000E+00
  0.00000000E+00  0.00000000E+00  0.00000000E+00
  0.00000000E+00  0.00000000E+00  0.00000000E+00
  0.00000000E+00  0.00000000E+00  0.00000000E+00
  0.00000000E+00  0.00000000E+00  0.00000000E+00
  0.00000000E+00  0.00000000E+00  0.00000000E+00
  0.00000000E+00  0.00000000E+00  0.00000000E+00
  0.00000000E+00  0.00000000E+00  0.00000000E+00
  0.00000000E+00  0.00000000E+00  0.00000000E+00
  0.00000000E+00  0.00000000E+00  0.00000000E+00
  0.00000000E+00  0.00000000E+00  0.00000000E+00
  0.00000000E+00  0.00000000E+00  0.00000000E+00
  0.00000000E+00  0.00000000E+00  0.00000000E+00
  0.00000000E+00  0.00000000E+00  0.00000000E+00
  0.00000000E+00  0.00000000E+00  0.00000000E+00
  0.00000000E+00  0.00000000E+00  0.00000000E+00
  0.00000000E+00  0.00000000E+00  0.00000000E+00
  0.00000000E+00  0.00000000E+00  0.00000000E+00
  0.00000000E+00  0.00000000E+00  0.00000000E+00
  0.00000000E+00  0.00000000E+00  0.00000000E+00
  0.00000000E+00  0.00000000E+00  0.00000000E+00
  0.00000000E+00  0.00000000E+00  0.00000000E+00
  0.00000000E+00  0.00000000E+00  0.00000000E+00
  0.00000000E+00  0.00000000E+00  0.00000000E+00
  0.00000000E+00  0.00000000E+00  0.00000000E+00
  0.00000000E+00  0.00000000E+00  0.00000000E+00
  0.00000000E+00  0.00000000E+00  0.00000000E+00
  0.00000000E+00  0.00000000E+00  0.00000000E+00
  0.00000000E+00  0.00000000E+00  0.00000000E+00
  0.00000000E+00  0.00000000E+00  0.00000000E+00
  0.00000000E+00  0.00000000E+00  0.00000000E+00
  0.00000000E+00  0.00000000E+00  0.00000000E+00
  0.00000000E+00  0.00000000E+00  0.00000000E+00
  0.00000000E+00  0.00000000E+00  0.00000000E+00
  0.00000000E+00  0.00000000E+00  0.00000000E+00
  0.00000000E+00  0.00000000E+00  0.00000000E+00
  0.00000000E+00  0.00000000E+00  0.00000000E+00
  0.00000000E+00  0.00000000E+00  0.00000000E+00
  0.00000000E+00  0.00000000E+00  0.00000000E+00
  0.00000000E+00  0.00000000E+00  0.00000000E+00
  0.00000000E+00  0.00000000E+00  0.00000000E+00
  0.00000000E+00  0.00000000E+00  0.00000000E+00
  0.00000000E+00  0.00000000E+00  0.00000000E+00
  0.00000000E+00  0.00000000E+00  0.00000000E+00
  0.00000000E+00  0.00000000E+00  0.00000000E+00
  0.00000000E+00  0.00000000E+00  0.00000000E+00
  0.00000000E+00  0.00000000E+00  0.00000000E+00
  0.00000000E+00  0.00000000E+00  0.00000000E+00
  0.00000000E+00  0.00000000E+00  0.00000000E+00
  0.00000000E+00  0.00000000E+00  0.00000000E+00
  0.00000000E+00  0.00000000E+00  0.00000000E+00
  0.00000000E+00  0.00000000E+00  0.00000000E+00
  0.00000000E+00  0.00000000E+00  0.00000000E+00
  0.00000000E+00  0.00000000E+00  0.00000000E+00
  0.00000000E+00  0.00000000E+00  0.00000000E+00
  0.00000000E+00  0.00000000E+00  0.00000000E+00
  0.00000000E+00  0.00000000E+00  0.00000000E+00
  0.00000000E+00  0.00000000E+00  0.00000000E+00
  0.00000000E+00  0.00000000E+00  0.00000000E+00
  0.00000000E+00  0.00000000E+00  0.00000000E+00
  0.00000000E+00  0.00000000E+00  0.00000000E+00
  0.00000000E+00  0.00000000E+00  0.00000000E+00
  0.00000000E+00  0.00000000E+00  0.00000000E+00
  0.00000000E+00  0.00000000E+00  0.00000000E+00
  0.00000000E+00  0.00000000E+00  0.00000000E+00
  0.00000000E+00  0.00000000E+00  0.00000000E+00
  0.00000000E+00  0.00000000E+00  0.00000000E+00
  0.00000000E+00  0.00000000E+00  0.00000000E+00
  0.00000000E+00  0.00000000E+00  0.00000000E+00
  0.00000000E+00  0.00000000E+00  0.00000000E+00
