Cu(111) surface                         
   1.00000000000000     
    12.7550029755000001    0.0000000000000000    0.0000000000000000
    -6.3775029586000000   11.0461557529000007    0.0000000000000000
     0.0000000000000000    0.0000000000000000   22.8339500426999997
   Cu   C    N    Pd   Ir
   100    46     3     1     1
Selective dynamics
Direct
  0.0000000000000000  0.0000000000000000  0.0895158200000026   F   F   F
  0.0000000000000000  0.2000000029999995  0.0895158200000026   F   F   F
  0.0000000000000000  0.4000000059999991  0.0895158200000026   F   F   F
  0.0000000000000000  0.6000000240000034  0.0895158200000026   F   F   F
  0.0000000000000000  0.8000000119999982  0.0895158200000026   F   F   F
  0.2000000029999995  0.0000000000000000  0.0895158200000026   F   F   F
  0.2000000029999995  0.2000000029999995  0.0895158200000026   F   F   F
  0.2000000029999995  0.4000000059999991  0.0895158200000026   F   F   F
  0.2000000029999995  0.6000000240000034  0.0895158200000026   F   F   F
  0.2000000029999995  0.8000000119999982  0.0895158200000026   F   F   F
  0.4000000059999991  0.0000000000000000  0.0895158200000026   F   F   F
  0.4000000059999991  0.2000000029999995  0.0895158200000026   F   F   F
  0.4000000059999991  0.4000000059999991  0.0895158200000026   F   F   F
  0.4000000059999991  0.6000000240000034  0.0895158200000026   F   F   F
  0.4000000059999991  0.8000000119999982  0.0895158200000026   F   F   F
  0.6000000240000034  0.0000000000000000  0.0895158200000026   F   F   F
  0.6000000240000034  0.2000000029999995  0.0895158200000026   F   F   F
  0.6000000240000034  0.4000000059999991  0.0895158200000026   F   F   F
  0.6000000240000034  0.6000000240000034  0.0895158200000026   F   F   F
  0.6000000240000034  0.8000000119999982  0.0895158200000026   F   F   F
  0.8000000119999982  0.0000000000000000  0.0895158200000026   F   F   F
  0.8000000119999982  0.2000000029999995  0.0895158200000026   F   F   F
  0.8000000119999982  0.4000000059999991  0.0895158200000026   F   F   F
  0.8000000119999982  0.6000000240000034  0.0895158200000026   F   F   F
  0.8000000119999982  0.8000000119999982  0.0895158200000026   F   F   F
  0.0666666699999965  0.1333333400000001  0.1807345149999975   F   F   F
  0.0666666699999965  0.3333333429999996  0.1807345149999975   F   F   F
  0.0666666699999965  0.5333333609999968  0.1807345149999975   F   F   F
  0.0666666699999965  0.7333333489999987  0.1807345149999975   F   F   F
  0.0666666699999965  0.9333333370000005  0.1807345149999975   F   F   F
  0.2666666809999967  0.1333333400000001  0.1807345149999975   F   F   F
  0.2666666809999967  0.3333333429999996  0.1807345149999975   F   F   F
  0.2666666809999967  0.5333333609999968  0.1807345149999975   F   F   F
  0.2666666809999967  0.7333333489999987  0.1807345149999975   F   F   F
  0.2666666809999967  0.9333333370000005  0.1807345149999975   F   F   F
  0.4666666689999985  0.1333333400000001  0.1807345149999975   F   F   F
  0.4666666689999985  0.3333333429999996  0.1807345149999975   F   F   F
  0.4666666689999985  0.5333333609999968  0.1807345149999975   F   F   F
  0.4666666689999985  0.7333333489999987  0.1807345149999975   F   F   F
  0.4666666689999985  0.9333333370000005  0.1807345149999975   F   F   F
  0.6666666870000029  0.1333333400000001  0.1807345149999975   F   F   F
  0.6666666870000029  0.3333333429999996  0.1807345149999975   F   F   F
  0.6666666870000029  0.5333333609999968  0.1807345149999975   F   F   F
  0.6666666870000029  0.7333333489999987  0.1807345149999975   F   F   F
  0.6666666870000029  0.9333333370000005  0.1807345149999975   F   F   F
  0.8666666749999976  0.1333333400000001  0.1807345149999975   F   F   F
  0.8666666749999976  0.3333333429999996  0.1807345149999975   F   F   F
  0.8666666749999976  0.5333333609999968  0.1807345149999975   F   F   F
  0.8666666749999976  0.7333333489999987  0.1807345149999975   F   F   F
  0.8666666749999976  0.9333333370000005  0.1807345149999975   F   F   F
  0.1338122650195379  0.0669879322455694  0.2688334806039524   T   T   T
  0.1337202169454360  0.2668147116313725  0.2688926752311173   T   T   T
  0.1338462518444068  0.4666361289913225  0.2688214522100011   T   T   T
  0.1333691694153032  0.6665465394176175  0.2687280450810320   T   T   T
  0.1333841600939875  0.8666168068647488  0.2687059042619352   T   T   T
  0.3339946241424211  0.0678354705805842  0.2690353761944212   T   T   T
  0.3348902981462989  0.2685602570615092  0.2704166614983591   T   T   T
  0.3348843045581387  0.4660352776439370  0.2704167399995712   T   T   T
  0.3340311300420728  0.6659621955980970  0.2690404214867143   T   T   T
  0.3334482412007906  0.8666307333581410  0.2687256573678147   T   T   T
  0.5333253986984591  0.0669882959832986  0.2688405202698326   T   T   T
  0.5338842783569582  0.2685571240127684  0.2703719993448355   T   T   T
  0.5333748328399630  0.4666108067535177  0.2723673605936026   T   T   T
  0.5339692184388789  0.6651540987762959  0.2703912861472625   T   T   T
  0.5333601006373057  0.8661615196132610  0.2688231235512387   T   T   T
  0.7333643291741039  0.0666066727458835  0.2688769336782605   T   T   T
  0.7332040791145690  0.2667952995896534  0.2689348664729105   T   T   T
  0.7314516982363669  0.4661295119636974  0.2703763981395590   T   T   T
  0.7314810988873638  0.6651427254576902  0.2703981672962557   T   T   T
  0.7331926474341655  0.8662972568470640  0.2689014288160835   T   T   T
  0.9333840847331755  0.0666236221613948  0.2689003032458063   T   T   T
  0.9333974149257013  0.2666347471526484  0.2688789855599720   T   T   T
  0.9330151543333942  0.4666695163412246  0.2688389944291669   T   T   T
  0.9321631671108962  0.6660025434334700  0.2690391449988622   T   T   T
  0.9330245681131666  0.8662003748557764  0.2688368437551729   T   T   T
  0.0001215508238517  0.9998916060494316  0.3568157591254094   T   T   T
 -0.0001240115991346  0.1998287216455154  0.3569901225245131   T   T   T
  0.0001640029128690  0.4000026938193967  0.3567809956511300   T   T   T
  0.0008926174478932  0.6001734239353756  0.3567183311520591   T   T   T
  0.0008550471875904  0.8004032940563386  0.3566922998317975   T   T   T
  0.1995935774450120  0.9991422057947874  0.3566881387737323   T   T   T
  0.1992207437694771  0.1991737614073054  0.3567982476598675   T   T   T
  0.1992977433681452  0.3997633035635245  0.3568241830107833   T   T   T
  0.1996375966560660  0.6001293441345762  0.3567023743079749   T   T   T
  0.2000966344731214  0.7998867279359793  0.3565570452462657   T   T   T
  0.3998181808771071  0.9990923332932797  0.3567181726742371   T   T   T
  0.3994261990657740  0.1984443852409292  0.3581822440341168   T   T   T
  0.4011552244940158  0.4003275767404820  0.3630613197473708   T   T   T
  0.3994568476269371  0.6006033600836220  0.3581396016631805   T   T   T
  0.3998630857345901  0.8003680826869420  0.3566993268198090   T   T   T
  0.6000018301552738  0.9998422321101466  0.3567759439847274   T   T   T
  0.6001888789984293  0.1991288861542997  0.3568660220169829   T   T   T
  0.5998572321022843  0.4001854320894775  0.3627993279301630   T   T   T
  0.5997539796339396  0.5989821293329953  0.3629580160474741   T   T   T
  0.6002447533733243  0.8007173832080725  0.3568399419581097   T   T   T
  0.8001963211022327  0.0001530614285254  0.3569904658758397   T   T   T
  0.8002150975145663  0.1998028461126863  0.3569705640305491   T   T   T
  0.8008830846348701  0.3998255656197864  0.3568645364573118   T   T   T
  0.8015283441101602  0.6005910858677327  0.3581986967718400   T   T   T
  0.8008416041805972  0.8007939434781782  0.3568140127055895   T   T   T
  0.1329925917991654  0.0653566798732458  0.4762296670728477   T   T   T
  0.1311890094745105  0.2647867797746583  0.4757114998227334   T   T   T
  0.1329665010235680  0.4659829114907546  0.4762733801382977   T   T   T
  0.1339274008026721  0.6662865107374043  0.4760687161908760   T   T   T
  0.1339292958045676  0.8659896064175291  0.4760387087098283   T   T   T
  0.3345299584910419  0.0675077524708015  0.4735980850935372   T   T   T
  0.3285385124971568  0.2654671193712012  0.4686774706863849   T   T   T
  0.3284975825825707  0.4614478266920247  0.4685994810686754   T   T   T
  0.3345368843357491  0.6653898872373109  0.4736127971740215   T   T   T
  0.3336292787715672  0.8659832227502199  0.4760692789271621   T   T   T
  0.5338987416573459  0.0653147918565908  0.4761331759739120   T   T   T
  0.5385240643956265  0.2655194297955759  0.4687476680835464   T   T   T
  0.5384874125365661  0.6714347071868680  0.4686214239323684   T   T   T
  0.5339442489546885  0.8669638776788350  0.4762357829915518   T   T   T
  0.7337460454766663  0.0660710267783050  0.4774941811335390   T   T   T
  0.7351453692455192  0.2647617414589378  0.4756379347655357   T   T   T
  0.7343588024058042  0.4613855366696803  0.4688051112444445   T   T   T
  0.7344244991025849  0.6713645834065868  0.4687821188789343   T   T   T
  0.7351463199350854  0.8687504874298009  0.4757086172054492   T   T   T
  0.9338690187600548  0.0660660279850837  0.4775197756378037   T   T   T
  0.9338623333730958  0.2661857421373768  0.4775056326867116   T   T   T
  0.9345858875762622  0.4660102118894640  0.4761457116946317   T   T   T
  0.9323972948430178  0.6653830166005391  0.4736312013363559   T   T   T
  0.9345747226983118  0.8669305753241044  0.4762163701450903   T   T   T
  0.0003224312387697  0.9996131066790488  0.4770708669722928   T   T   T
 -0.0000699078521677  0.1991587715315910  0.4773262432839932   T   T   T
  0.0003251265987450  0.3990994999449377  0.4770493129641127   T   T   T
  0.0003403687699052  0.5994882507142953  0.4752177574853887   T   T   T
  0.0003457176936932  0.7992402861047110  0.4752130754002336   T   T   T
  0.2006728659819209  0.9995718587534363  0.4752017078621405   T   T   T
  0.1976072294132954  0.1974103240565800  0.4745553945415444   T   T   T
  0.1975894468691825  0.3985850724240325  0.4745618316816724   T   T   T
  0.2006833643628570  0.5994739333638175  0.4752499868550458   T   T   T
  0.2005037682792133  0.7994217796169053  0.4758237437193173   T   T   T
  0.4004225409517436  0.9995695820388101  0.4752034519261223   T   T   T
  0.4018032415180087  0.2021132693227442  0.4686180418810265   T   T   T
  0.4018231439621694  0.5981134733437521  0.4685617013987555   T   T   T
  0.4004457764483956  0.7992372394743830  0.4752392464866395   T   T   T
  0.6008251428077742  0.9995938001124536  0.4770315605210717   T   T   T
  0.6013478234768913  0.1973780131407111  0.4744223369329478   T   T   T
  0.6013540518736896  0.8023587676708880  0.4745240790494263   T   T   T
  0.8007722512203416  0.0000025096561820  0.4773191435713622   T   T   T
  0.8007784976879189  0.1991427318226710  0.4772866794326521   T   T   T
  0.8025151446336124  0.3985674498266431  0.4744448197228817   T   T   T
  0.7977812838104943  0.5981183870018314  0.4686895224785266   T   T   T
  0.8025175552725413  0.8023205521293159  0.4745580775187713   T   T   T
  0.3868430255229773  0.3926526352326791  0.4618567306580770   T   T   T
  0.6071839230577241  0.3926977999485871  0.4629405768658093   T   T   T
  0.6072200676339973  0.6130051776660217  0.4622129759656400   T   T   T
  0.5332171385437090  0.4662412988722484  0.5292080950461765   T   T   T
  0.5355017670108955  0.4648979348013497  0.6323651609157486   T   T   T
 
  0.00000000E+00  0.00000000E+00  0.00000000E+00
  0.00000000E+00  0.00000000E+00  0.00000000E+00
  0.00000000E+00  0.00000000E+00  0.00000000E+00
  0.00000000E+00  0.00000000E+00  0.00000000E+00
  0.00000000E+00  0.00000000E+00  0.00000000E+00
  0.00000000E+00  0.00000000E+00  0.00000000E+00
  0.00000000E+00  0.00000000E+00  0.00000000E+00
  0.00000000E+00  0.00000000E+00  0.00000000E+00
  0.00000000E+00  0.00000000E+00  0.00000000E+00
  0.00000000E+00  0.00000000E+00  0.00000000E+00
  0.00000000E+00  0.00000000E+00  0.00000000E+00
  0.00000000E+00  0.00000000E+00  0.00000000E+00
  0.00000000E+00  0.00000000E+00  0.00000000E+00
  0.00000000E+00  0.00000000E+00  0.00000000E+00
  0.00000000E+00  0.00000000E+00  0.00000000E+00
  0.00000000E+00  0.00000000E+00  0.00000000E+00
  0.00000000E+00  0.00000000E+00  0.00000000E+00
  0.00000000E+00  0.00000000E+00  0.00000000E+00
  0.00000000E+00  0.00000000E+00  0.00000000E+00
  0.00000000E+00  0.00000000E+00  0.00000000E+00
  0.00000000E+00  0.00000000E+00  0.00000000E+00
  0.00000000E+00  0.00000000E+00  0.00000000E+00
  0.00000000E+00  0.00000000E+00  0.00000000E+00
  0.00000000E+00  0.00000000E+00  0.00000000E+00
  0.00000000E+00  0.00000000E+00  0.00000000E+00
  0.00000000E+00  0.00000000E+00  0.00000000E+00
  0.00000000E+00  0.00000000E+00  0.00000000E+00
  0.00000000E+00  0.00000000E+00  0.00000000E+00
  0.00000000E+00  0.00000000E+00  0.00000000E+00
  0.00000000E+00  0.00000000E+00  0.00000000E+00
  0.00000000E+00  0.00000000E+00  0.00000000E+00
  0.00000000E+00  0.00000000E+00  0.00000000E+00
  0.00000000E+00  0.00000000E+00  0.00000000E+00
  0.00000000E+00  0.00000000E+00  0.00000000E+00
  0.00000000E+00  0.00000000E+00  0.00000000E+00
  0.00000000E+00  0.00000000E+00  0.00000000E+00
  0.00000000E+00  0.00000000E+00  0.00000000E+00
  0.00000000E+00  0.00000000E+00  0.00000000E+00
  0.00000000E+00  0.00000000E+00  0.00000000E+00
  0.00000000E+00  0.00000000E+00  0.00000000E+00
  0.00000000E+00  0.00000000E+00  0.00000000E+00
  0.00000000E+00  0.00000000E+00  0.00000000E+00
  0.00000000E+00  0.00000000E+00  0.00000000E+00
  0.00000000E+00  0.00000000E+00  0.00000000E+00
  0.00000000E+00  0.00000000E+00  0.00000000E+00
  0.00000000E+00  0.00000000E+00  0.00000000E+00
  0.00000000E+00  0.00000000E+00  0.00000000E+00
  0.00000000E+00  0.00000000E+00  0.00000000E+00
  0.00000000E+00  0.00000000E+00  0.00000000E+00
  0.00000000E+00  0.00000000E+00  0.00000000E+00
  0.00000000E+00  0.00000000E+00  0.00000000E+00
  0.00000000E+00  0.00000000E+00  0.00000000E+00
  0.00000000E+00  0.00000000E+00  0.00000000E+00
  0.00000000E+00  0.00000000E+00  0.00000000E+00
  0.00000000E+00  0.00000000E+00  0.00000000E+00
  0.00000000E+00  0.00000000E+00  0.00000000E+00
  0.00000000E+00  0.00000000E+00  0.00000000E+00
  0.00000000E+00  0.00000000E+00  0.00000000E+00
  0.00000000E+00  0.00000000E+00  0.00000000E+00
  0.00000000E+00  0.00000000E+00  0.00000000E+00
  0.00000000E+00  0.00000000E+00  0.00000000E+00
  0.00000000E+00  0.00000000E+00  0.00000000E+00
  0.00000000E+00  0.00000000E+00  0.00000000E+00
  0.00000000E+00  0.00000000E+00  0.00000000E+00
  0.00000000E+00  0.00000000E+00  0.00000000E+00
  0.00000000E+00  0.00000000E+00  0.00000000E+00
  0.00000000E+00  0.00000000E+00  0.00000000E+00
  0.00000000E+00  0.00000000E+00  0.00000000E+00
  0.00000000E+00  0.00000000E+00  0.00000000E+00
  0.00000000E+00  0.00000000E+00  0.00000000E+00
  0.00000000E+00  0.00000000E+00  0.00000000E+00
  0.00000000E+00  0.00000000E+00  0.00000000E+00
  0.00000000E+00  0.00000000E+00  0.00000000E+00
  0.00000000E+00  0.00000000E+00  0.00000000E+00
  0.00000000E+00  0.00000000E+00  0.00000000E+00
  0.00000000E+00  0.00000000E+00  0.00000000E+00
  0.00000000E+00  0.00000000E+00  0.00000000E+00
  0.00000000E+00  0.00000000E+00  0.00000000E+00
  0.00000000E+00  0.00000000E+00  0.00000000E+00
  0.00000000E+00  0.00000000E+00  0.00000000E+00
  0.00000000E+00  0.00000000E+00  0.00000000E+00
  0.00000000E+00  0.00000000E+00  0.00000000E+00
  0.00000000E+00  0.00000000E+00  0.00000000E+00
  0.00000000E+00  0.00000000E+00  0.00000000E+00
  0.00000000E+00  0.00000000E+00  0.00000000E+00
  0.00000000E+00  0.00000000E+00  0.00000000E+00
  0.00000000E+00  0.00000000E+00  0.00000000E+00
  0.00000000E+00  0.00000000E+00  0.00000000E+00
  0.00000000E+00  0.00000000E+00  0.00000000E+00
  0.00000000E+00  0.00000000E+00  0.00000000E+00
  0.00000000E+00  0.00000000E+00  0.00000000E+00
  0.00000000E+00  0.00000000E+00  0.00000000E+00
  0.00000000E+00  0.00000000E+00  0.00000000E+00
  0.00000000E+00  0.00000000E+00  0.00000000E+00
  0.00000000E+00  0.00000000E+00  0.00000000E+00
  0.00000000E+00  0.00000000E+00  0.00000000E+00
  0.00000000E+00  0.00000000E+00  0.00000000E+00
  0.00000000E+00  0.00000000E+00  0.00000000E+00
  0.00000000E+00  0.00000000E+00  0.00000000E+00
  0.00000000E+00  0.00000000E+00  0.00000000E+00
  0.00000000E+00  0.00000000E+00  0.00000000E+00
  0.00000000E+00  0.00000000E+00  0.00000000E+00
  0.00000000E+00  0.00000000E+00  0.00000000E+00
  0.00000000E+00  0.00000000E+00  0.00000000E+00
  0.00000000E+00  0.00000000E+00  0.00000000E+00
  0.00000000E+00  0.00000000E+00  0.00000000E+00
  0.00000000E+00  0.00000000E+00  0.00000000E+00
  0.00000000E+00  0.00000000E+00  0.00000000E+00
  0.00000000E+00  0.00000000E+00  0.00000000E+00
  0.00000000E+00  0.00000000E+00  0.00000000E+00
  0.00000000E+00  0.00000000E+00  0.00000000E+00
  0.00000000E+00  0.00000000E+00  0.00000000E+00
  0.00000000E+00  0.00000000E+00  0.00000000E+00
  0.00000000E+00  0.00000000E+00  0.00000000E+00
  0.00000000E+00  0.00000000E+00  0.00000000E+00
  0.00000000E+00  0.00000000E+00  0.00000000E+00
  0.00000000E+00  0.00000000E+00  0.00000000E+00
  0.00000000E+00  0.00000000E+00  0.00000000E+00
  0.00000000E+00  0.00000000E+00  0.00000000E+00
  0.00000000E+00  0.00000000E+00  0.00000000E+00
  0.00000000E+00  0.00000000E+00  0.00000000E+00
  0.00000000E+00  0.00000000E+00  0.00000000E+00
  0.00000000E+00  0.00000000E+00  0.00000000E+00
  0.00000000E+00  0.00000000E+00  0.00000000E+00
  0.00000000E+00  0.00000000E+00  0.00000000E+00
  0.00000000E+00  0.00000000E+00  0.00000000E+00
  0.00000000E+00  0.00000000E+00  0.00000000E+00
  0.00000000E+00  0.00000000E+00  0.00000000E+00
  0.00000000E+00  0.00000000E+00  0.00000000E+00
  0.00000000E+00  0.00000000E+00  0.00000000E+00
  0.00000000E+00  0.00000000E+00  0.00000000E+00
  0.00000000E+00  0.00000000E+00  0.00000000E+00
  0.00000000E+00  0.00000000E+00  0.00000000E+00
  0.00000000E+00  0.00000000E+00  0.00000000E+00
  0.00000000E+00  0.00000000E+00  0.00000000E+00
  0.00000000E+00  0.00000000E+00  0.00000000E+00
  0.00000000E+00  0.00000000E+00  0.00000000E+00
  0.00000000E+00  0.00000000E+00  0.00000000E+00
  0.00000000E+00  0.00000000E+00  0.00000000E+00
  0.00000000E+00  0.00000000E+00  0.00000000E+00
  0.00000000E+00  0.00000000E+00  0.00000000E+00
  0.00000000E+00  0.00000000E+00  0.00000000E+00
  0.00000000E+00  0.00000000E+00  0.00000000E+00
  0.00000000E+00  0.00000000E+00  0.00000000E+00
  0.00000000E+00  0.00000000E+00  0.00000000E+00
  0.00000000E+00  0.00000000E+00  0.00000000E+00
  0.00000000E+00  0.00000000E+00  0.00000000E+00
  0.00000000E+00  0.00000000E+00  0.00000000E+00
  0.00000000E+00  0.00000000E+00  0.00000000E+00
  0.00000000E+00  0.00000000E+00  0.00000000E+00
  0.00000000E+00  0.00000000E+00  0.00000000E+00
