Mg0(001) bulk                           
   1.00000000000000     
    17.1110649109000015    0.0000000000000000    0.0000000000000000
     0.0000000000000000    8.5555324553999998    0.0000000000000000
     0.0000000000000000    0.0000000000000000   22.3424186706999990
   Mg   O    C    N    Pt   Ir
    64    64    52     3     1     1
Selective dynamics
Direct
  0.0000000000000000  0.0000000000000000  0.0500000010000008   F   F   F
  0.0000000000000000  0.5000000000000000  0.0500000010000008   F   F   F
  0.2500000000000000  0.0000000000000000  0.0500000010000008   F   F   F
  0.2500000000000000  0.5000000000000000  0.0500000010000008   F   F   F
  0.5000000000000000  0.0000000000000000  0.0500000010000008   F   F   F
  0.5000000000000000  0.5000000000000000  0.0500000010000008   F   F   F
  0.7500000000000000  0.0000000000000000  0.0500000010000008   F   F   F
  0.7500000000000000  0.5000000000000000  0.0500000010000008   F   F   F
  0.1250000000000000  0.2500000000000000  0.0500000010000008   F   F   F
  0.1250000000000000  0.7500000000000000  0.0500000010000008   F   F   F
  0.3750000000000000  0.2500000000000000  0.0500000010000008   F   F   F
  0.3750000000000000  0.7500000000000000  0.0500000010000008   F   F   F
  0.6250000000000000  0.2500000000000000  0.0500000010000008   F   F   F
  0.6250000000000000  0.7500000000000000  0.0500000010000008   F   F   F
  0.8750000000000000  0.2500000000000000  0.0500000010000008   F   F   F
  0.8750000000000000  0.7500000000000000  0.0500000010000008   F   F   F
  0.0000000000000000  0.2500000000000000  0.1457319410000011   F   F   F
  0.0000000000000000  0.7500000000000000  0.1457319410000011   F   F   F
  0.2500000000000000  0.2500000000000000  0.1457319410000011   F   F   F
  0.2500000000000000  0.7500000000000000  0.1457319410000011   F   F   F
  0.5000000000000000  0.2500000000000000  0.1457319410000011   F   F   F
  0.5000000000000000  0.7500000000000000  0.1457319410000011   F   F   F
  0.7500000000000000  0.2500000000000000  0.1457319410000011   F   F   F
  0.7500000000000000  0.7500000000000000  0.1457319410000011   F   F   F
  0.1250000000000000  0.0000000000000000  0.1457319410000011   F   F   F
  0.1250000000000000  0.5000000000000000  0.1457319410000011   F   F   F
  0.3750000000000000  0.0000000000000000  0.1457319410000011   F   F   F
  0.3750000000000000  0.5000000000000000  0.1457319410000011   F   F   F
  0.6250000000000000  0.0000000000000000  0.1457319410000011   F   F   F
  0.6250000000000000  0.5000000000000000  0.1457319410000011   F   F   F
  0.8750000000000000  0.0000000000000000  0.1457319410000011   F   F   F
  0.8750000000000000  0.5000000000000000  0.1457319410000011   F   F   F
 -0.0000276173241395  0.0001592280293444  0.2391546637632125   T   T   T
 -0.0000264536075174  0.5001115433236615  0.2391479736071558   T   T   T
  0.2500183576237338  0.0002772097138874  0.2392074286181601   T   T   T
  0.2500044644050283  0.5001664434670212  0.2391979097162373   T   T   T
  0.4999988337602824  0.0005143063805136  0.2394734600499716   T   T   T
  0.4999752576264032  0.4999553664358717  0.2394008644167366   T   T   T
  0.7499704160234165  0.0002292705039438  0.2392373718723768   T   T   T
  0.7499756434108402  0.5000505973305333  0.2392484831882701   T   T   T
  0.1250431011443810  0.2501355602371260  0.2391853049605511   T   T   T
  0.1250135767586694  0.7501759523972632  0.2391642369251194   T   T   T
  0.3751557850374448  0.2501450942342303  0.2394065131048641   T   T   T
  0.3750631267120898  0.7502257573614740  0.2393077287752172   T   T   T
  0.6248397884398901  0.2501136228200344  0.2394014760233342   T   T   T
  0.6248977512485607  0.7501459494347748  0.2393218050763776   T   T   T
  0.8749480738458407  0.2501161323586014  0.2391950517149236   T   T   T
  0.8749707437765996  0.7501558224557479  0.2391769928898095   T   T   T
  0.9999131021757010  0.2499981283730506  0.3312979672895089   T   T   T
  0.9999209845818715  0.7500532854433362  0.3312913133259253   T   T   T
  0.2498556687802188  0.2500858729152800  0.3316572929443651   T   T   T
  0.2498012766698903  0.7502332634873039  0.3315077177607043   T   T   T
  0.5001373730980263  0.2507301951999713  0.3329201853702519   T   T   T
  0.5000287922748158  0.7500707353362570  0.3319427390743268   T   T   T
  0.7501302046602166  0.2499955738964546  0.3315894567924957   T   T   T
  0.7501981749460979  0.7501313683646637  0.3314299969255766   T   T   T
  0.1250677976831528  0.0000879073006426  0.3314331563279018   T   T   T
  0.1250500361867667  0.5000748348297802  0.3313872477532118   T   T   T
  0.3748953234906682  0.0002595148560095  0.3316581092610860   T   T   T
  0.3748783913647120  0.5000737931167089  0.3314742743628625   T   T   T
  0.6249814462354784  0.0001939781927212  0.3317540899078162   T   T   T
  0.6248740271277432  0.4999675926086850  0.3316318037553260   T   T   T
  0.8750450111703844  0.0000495703946050  0.3315739461495745   T   T   T
  0.8750735678722169  0.5000079453170632  0.3315218740593761   T   T   T
  0.0000000000000000  0.2500000000000000  0.0500000010000008   F   F   F
  0.0000000000000000  0.7500000000000000  0.0500000010000008   F   F   F
  0.2500000000000000  0.2500000000000000  0.0500000010000008   F   F   F
  0.2500000000000000  0.7500000000000000  0.0500000010000008   F   F   F
  0.5000000000000000  0.2500000000000000  0.0500000010000008   F   F   F
  0.5000000000000000  0.7500000000000000  0.0500000010000008   F   F   F
  0.7500000000000000  0.2500000000000000  0.0500000010000008   F   F   F
  0.7500000000000000  0.7500000000000000  0.0500000010000008   F   F   F
  0.1250000000000000  0.0000000000000000  0.0500000010000008   F   F   F
  0.1250000000000000  0.5000000000000000  0.0500000010000008   F   F   F
  0.3750000000000000  0.0000000000000000  0.0500000010000008   F   F   F
  0.3750000000000000  0.5000000000000000  0.0500000010000008   F   F   F
  0.6250000000000000  0.0000000000000000  0.0500000010000008   F   F   F
  0.6250000000000000  0.5000000000000000  0.0500000010000008   F   F   F
  0.8750000000000000  0.0000000000000000  0.0500000010000008   F   F   F
  0.8750000000000000  0.5000000000000000  0.0500000010000008   F   F   F
  0.0000000000000000  0.0000000000000000  0.1457319410000011   F   F   F
  0.0000000000000000  0.5000000000000000  0.1457319410000011   F   F   F
  0.2500000000000000  0.0000000000000000  0.1457319410000011   F   F   F
  0.2500000000000000  0.5000000000000000  0.1457319410000011   F   F   F
  0.5000000000000000  0.0000000000000000  0.1457319410000011   F   F   F
  0.5000000000000000  0.5000000000000000  0.1457319410000011   F   F   F
  0.7500000000000000  0.0000000000000000  0.1457319410000011   F   F   F
  0.7500000000000000  0.5000000000000000  0.1457319410000011   F   F   F
  0.1250000000000000  0.2500000000000000  0.1457319410000011   F   F   F
  0.1250000000000000  0.7500000000000000  0.1457319410000011   F   F   F
  0.3750000000000000  0.2500000000000000  0.1457319410000011   F   F   F
  0.3750000000000000  0.7500000000000000  0.1457319410000011   F   F   F
  0.6250000000000000  0.2500000000000000  0.1457319410000011   F   F   F
  0.6250000000000000  0.7500000000000000  0.1457319410000011   F   F   F
  0.8750000000000000  0.2500000000000000  0.1457319410000011   F   F   F
  0.8750000000000000  0.7500000000000000  0.1457319410000011   F   F   F
 -0.0000035277576737  0.2501072441221774  0.2388568322884106   T   T   T
 -0.0000089825569925  0.7501048791745130  0.2388545797290091   T   T   T
  0.2501314152883264  0.2501979265519597  0.2389867304778152   T   T   T
  0.2501190000438361  0.7501730707227330  0.2389437276095718   T   T   T
  0.4999948599295194  0.2502362371924181  0.2393945062448298   T   T   T
  0.4999994009832661  0.7501707153878423  0.2391945233806356   T   T   T
  0.7498673496484068  0.2501524118622871  0.2389903050183783   T   T   T
  0.7498444302664454  0.7500853499036920  0.2389661372060995   T   T   T
  0.1250038870727035  0.0001534428426218  0.2388832695112528   T   T   T
  0.1250183051313638  0.5001441507876467  0.2388804499753728   T   T   T
  0.3751082717114185  0.0001784710388058  0.2390944095526948   T   T   T
  0.3750863083930852  0.5001788980371354  0.2390311400132920   T   T   T
  0.6249207740669364  0.0000881408753790  0.2391256505020431   T   T   T
  0.6249076844420767  0.5001700184278849  0.2390922068842313   T   T   T
  0.8749411626854178  0.0001334349708569  0.2389199866748980   T   T   T
  0.8749257736785753  0.5001366031015921  0.2389192541098235   T   T   T
  0.0000051169061523  0.0001379843407094  0.3337574773303820   T   T   T
  0.0000055081605006  0.5001369244979106  0.3337348247420503   T   T   T
  0.2499590135572294  0.0002875752237389  0.3337183700233468   T   T   T
  0.2499831617639280  0.5004371969868544  0.3337837922908374   T   T   T
  0.5000002935899565  0.0002020485041081  0.3344489122624668   T   T   T
  0.4998860497774510  0.5006003309051444  0.3344618698374775   T   T   T
  0.7500129425156947  0.0001186102211228  0.3339304895352136   T   T   T
  0.7499978677838272  0.5002807916353700  0.3340570816554620   T   T   T
  0.1249630656046169  0.2502307709865390  0.3336662305984953   T   T   T
  0.1249543307740753  0.7502206301632823  0.3336399578568341   T   T   T
  0.3748812649612658  0.2503989486783922  0.3343520347770564   T   T   T
  0.3749229131192334  0.7501510216455397  0.3342467047442774   T   T   T
  0.6251612498115373  0.2503823951861657  0.3342247902889716   T   T   T
  0.6250379094409109  0.7499909031366194  0.3343098637125147   T   T   T
  0.8750177664323041  0.2502218752235512  0.3336074399031252   T   T   T
  0.8750121785622261  0.7502132722485823  0.3335972947394798   T   T   T
  0.0173559206761099  0.9562303113109304  0.4768978965009074   T   T   T
  0.1603630277351013  0.9562970811744547  0.4760002066997759   T   T   T
  0.3037720864422077  0.9563949197456225  0.4770810501142369   T   T   T
  0.4462743089312647  0.9516214052391383  0.4802274241972338   T   T   T
  0.5883208985294410  0.9519303624116802  0.4799282274775780   T   T   T
  0.7309158254612961  0.9566248759574046  0.4776471814709915   T   T   T
  0.8742853845550702  0.9564196601695167  0.4760003996323220   T   T   T
  0.0173801310690269  0.1227044978931701  0.4767489378314321   T   T   T
  0.1607146039540636  0.1227807350017313  0.4761713826042544   T   T   T
  0.3050530703182537  0.1238828482978481  0.4783640868969775   T   T   T
  0.4481620097455419  0.1175681578317876  0.4810345731904664   T   T   T
  0.5864085631372992  0.1178759877137953  0.4806063346650876   T   T   T
  0.7296451993163461  0.1241182897320174  0.4786311956684565   T   T   T
  0.8739080139299290  0.1229582157303911  0.4761604123704802   T   T   T
  0.0173673530698853  0.4561343304679578  0.4765441739837479   T   T   T
  0.1604042269870397  0.4560136233297723  0.4752259164326150   T   T   T
  0.3032064695463609  0.4559437283665704  0.4774812478519925   T   T   T
  0.7315629163121534  0.4561557752999292  0.4781136625761047   T   T   T
  0.8742810883157429  0.4561490029095794  0.4753590065888303   T   T   T
  0.0174031475410558  0.6226327552574736  0.4764994028842689   T   T   T
  0.1601690524038333  0.6227292564138118  0.4754617003697060   T   T   T
  0.3027606535332500  0.6223169439645033  0.4773016697577708   T   T   T
  0.4440281493693033  0.6189623767725494  0.4866149978533119   T   T   T
  0.5906952383572981  0.6192857686217189  0.4862965468505564   T   T   T
  0.7320130752227604  0.6225792847967089  0.4780193321400601   T   T   T
  0.8745101781043189  0.6229003373066182  0.4755617818716139   T   T   T
  0.0890399505036946  0.2060088826178834  0.4764867254785336   T   T   T
  0.2325610926571289  0.2060481503539404  0.4764294905004715   T   T   T
  0.3768819944606034  0.2065673930335212  0.4819846862159388   T   T   T
  0.6576993691665853  0.2069001938528393  0.4815302374755396   T   T   T
  0.8020753112148482  0.2062127481418244  0.4769224995898462   T   T   T
  0.9456203315164755  0.2061820493928507  0.4762512637809219   T   T   T
  0.0889033864624506  0.3726673307870212  0.4762461948308375   T   T   T
  0.2319696739297662  0.3719721071131330  0.4754354812553975   T   T   T
  0.3750152822248767  0.3754664190735986  0.4839371954904698   T   T   T
  0.6597161722251197  0.3756841846879602  0.4835097082749204   T   T   T
  0.8027662573742623  0.3721816192467416  0.4760813039275614   T   T   T
  0.9458419871577833  0.3727529279652284  0.4760799051321170   T   T   T
  0.0888149383124626  0.7060029638025985  0.4763503367205471   T   T   T
  0.2316368961320816  0.7066221989988730  0.4755301019426379   T   T   T
  0.3739609277749341  0.7048840609838860  0.4792563514774434   T   T   T
  0.5173299908815839  0.6999933745992248  0.4866957229837692   T   T   T
  0.6607728898941302  0.7052918486374555  0.4796307240616779   T   T   T
  0.8030506935900880  0.7068029959968493  0.4762327461017279   T   T   T
  0.9458856299568176  0.7061825681570568  0.4761064725705627   T   T   T
  0.0889098065441849  0.8728436698818880  0.4765889904523531   T   T   T
  0.2321032688133172  0.8732536759631241  0.4757875054177245   T   T   T
  0.3744757674697699  0.8711289158348069  0.4784324674505403   T   T   T
  0.5173119404561194  0.8659252293227853  0.4820593190159470   T   T   T
  0.6602811740695272  0.8714777532269826  0.4786692151676621   T   T   T
  0.8026081156371333  0.8734278051515627  0.4763978972814659   T   T   T
  0.9458236946623967  0.8729305504661015  0.4763758385818561   T   T   T
  0.4405576453088135  0.4616451232495213  0.4944749826818717   T   T   T
  0.5937432783920211  0.4616356476778148  0.4929266339552013   T   T   T
  0.5171933794203273  0.1944963744273981  0.4818529407569823   T   T   T
  0.5177693193375553  0.3685875806323791  0.5563504960812473   T   T   T
  0.5201564613860223  0.3296697255201813  0.6580067721803440   T   T   T
 
  0.00000000E+00  0.00000000E+00  0.00000000E+00
  0.00000000E+00  0.00000000E+00  0.00000000E+00
  0.00000000E+00  0.00000000E+00  0.00000000E+00
  0.00000000E+00  0.00000000E+00  0.00000000E+00
  0.00000000E+00  0.00000000E+00  0.00000000E+00
  0.00000000E+00  0.00000000E+00  0.00000000E+00
  0.00000000E+00  0.00000000E+00  0.00000000E+00
  0.00000000E+00  0.00000000E+00  0.00000000E+00
  0.00000000E+00  0.00000000E+00  0.00000000E+00
  0.00000000E+00  0.00000000E+00  0.00000000E+00
  0.00000000E+00  0.00000000E+00  0.00000000E+00
  0.00000000E+00  0.00000000E+00  0.00000000E+00
  0.00000000E+00  0.00000000E+00  0.00000000E+00
  0.00000000E+00  0.00000000E+00  0.00000000E+00
  0.00000000E+00  0.00000000E+00  0.00000000E+00
  0.00000000E+00  0.00000000E+00  0.00000000E+00
  0.00000000E+00  0.00000000E+00  0.00000000E+00
  0.00000000E+00  0.00000000E+00  0.00000000E+00
  0.00000000E+00  0.00000000E+00  0.00000000E+00
  0.00000000E+00  0.00000000E+00  0.00000000E+00
  0.00000000E+00  0.00000000E+00  0.00000000E+00
  0.00000000E+00  0.00000000E+00  0.00000000E+00
  0.00000000E+00  0.00000000E+00  0.00000000E+00
  0.00000000E+00  0.00000000E+00  0.00000000E+00
  0.00000000E+00  0.00000000E+00  0.00000000E+00
  0.00000000E+00  0.00000000E+00  0.00000000E+00
  0.00000000E+00  0.00000000E+00  0.00000000E+00
  0.00000000E+00  0.00000000E+00  0.00000000E+00
  0.00000000E+00  0.00000000E+00  0.00000000E+00
  0.00000000E+00  0.00000000E+00  0.00000000E+00
  0.00000000E+00  0.00000000E+00  0.00000000E+00
  0.00000000E+00  0.00000000E+00  0.00000000E+00
  0.00000000E+00  0.00000000E+00  0.00000000E+00
  0.00000000E+00  0.00000000E+00  0.00000000E+00
  0.00000000E+00  0.00000000E+00  0.00000000E+00
  0.00000000E+00  0.00000000E+00  0.00000000E+00
  0.00000000E+00  0.00000000E+00  0.00000000E+00
  0.00000000E+00  0.00000000E+00  0.00000000E+00
  0.00000000E+00  0.00000000E+00  0.00000000E+00
  0.00000000E+00  0.00000000E+00  0.00000000E+00
  0.00000000E+00  0.00000000E+00  0.00000000E+00
  0.00000000E+00  0.00000000E+00  0.00000000E+00
  0.00000000E+00  0.00000000E+00  0.00000000E+00
  0.00000000E+00  0.00000000E+00  0.00000000E+00
  0.00000000E+00  0.00000000E+00  0.00000000E+00
  0.00000000E+00  0.00000000E+00  0.00000000E+00
  0.00000000E+00  0.00000000E+00  0.00000000E+00
  0.00000000E+00  0.00000000E+00  0.00000000E+00
  0.00000000E+00  0.00000000E+00  0.00000000E+00
  0.00000000E+00  0.00000000E+00  0.00000000E+00
  0.00000000E+00  0.00000000E+00  0.00000000E+00
  0.00000000E+00  0.00000000E+00  0.00000000E+00
  0.00000000E+00  0.00000000E+00  0.00000000E+00
  0.00000000E+00  0.00000000E+00  0.00000000E+00
  0.00000000E+00  0.00000000E+00  0.00000000E+00
  0.00000000E+00  0.00000000E+00  0.00000000E+00
  0.00000000E+00  0.00000000E+00  0.00000000E+00
  0.00000000E+00  0.00000000E+00  0.00000000E+00
  0.00000000E+00  0.00000000E+00  0.00000000E+00
  0.00000000E+00  0.00000000E+00  0.00000000E+00
  0.00000000E+00  0.00000000E+00  0.00000000E+00
  0.00000000E+00  0.00000000E+00  0.00000000E+00
  0.00000000E+00  0.00000000E+00  0.00000000E+00
  0.00000000E+00  0.00000000E+00  0.00000000E+00
  0.00000000E+00  0.00000000E+00  0.00000000E+00
  0.00000000E+00  0.00000000E+00  0.00000000E+00
  0.00000000E+00  0.00000000E+00  0.00000000E+00
  0.00000000E+00  0.00000000E+00  0.00000000E+00
  0.00000000E+00  0.00000000E+00  0.00000000E+00
  0.00000000E+00  0.00000000E+00  0.00000000E+00
  0.00000000E+00  0.00000000E+00  0.00000000E+00
  0.00000000E+00  0.00000000E+00  0.00000000E+00
  0.00000000E+00  0.00000000E+00  0.00000000E+00
  0.00000000E+00  0.00000000E+00  0.00000000E+00
  0.00000000E+00  0.00000000E+00  0.00000000E+00
  0.00000000E+00  0.00000000E+00  0.00000000E+00
  0.00000000E+00  0.00000000E+00  0.00000000E+00
  0.00000000E+00  0.00000000E+00  0.00000000E+00
  0.00000000E+00  0.00000000E+00  0.00000000E+00
  0.00000000E+00  0.00000000E+00  0.00000000E+00
  0.00000000E+00  0.00000000E+00  0.00000000E+00
  0.00000000E+00  0.00000000E+00  0.00000000E+00
  0.00000000E+00  0.00000000E+00  0.00000000E+00
  0.00000000E+00  0.00000000E+00  0.00000000E+00
  0.00000000E+00  0.00000000E+00  0.00000000E+00
  0.00000000E+00  0.00000000E+00  0.00000000E+00
  0.00000000E+00  0.00000000E+00  0.00000000E+00
  0.00000000E+00  0.00000000E+00  0.00000000E+00
  0.00000000E+00  0.00000000E+00  0.00000000E+00
  0.00000000E+00  0.00000000E+00  0.00000000E+00
  0.00000000E+00  0.00000000E+00  0.00000000E+00
  0.00000000E+00  0.00000000E+00  0.00000000E+00
  0.00000000E+00  0.00000000E+00  0.00000000E+00
  0.00000000E+00  0.00000000E+00  0.00000000E+00
  0.00000000E+00  0.00000000E+00  0.00000000E+00
  0.00000000E+00  0.00000000E+00  0.00000000E+00
  0.00000000E+00  0.00000000E+00  0.00000000E+00
  0.00000000E+00  0.00000000E+00  0.00000000E+00
  0.00000000E+00  0.00000000E+00  0.00000000E+00
  0.00000000E+00  0.00000000E+00  0.00000000E+00
  0.00000000E+00  0.00000000E+00  0.00000000E+00
  0.00000000E+00  0.00000000E+00  0.00000000E+00
  0.00000000E+00  0.00000000E+00  0.00000000E+00
  0.00000000E+00  0.00000000E+00  0.00000000E+00
  0.00000000E+00  0.00000000E+00  0.00000000E+00
  0.00000000E+00  0.00000000E+00  0.00000000E+00
  0.00000000E+00  0.00000000E+00  0.00000000E+00
  0.00000000E+00  0.00000000E+00  0.00000000E+00
  0.00000000E+00  0.00000000E+00  0.00000000E+00
  0.00000000E+00  0.00000000E+00  0.00000000E+00
  0.00000000E+00  0.00000000E+00  0.00000000E+00
  0.00000000E+00  0.00000000E+00  0.00000000E+00
  0.00000000E+00  0.00000000E+00  0.00000000E+00
  0.00000000E+00  0.00000000E+00  0.00000000E+00
  0.00000000E+00  0.00000000E+00  0.00000000E+00
  0.00000000E+00  0.00000000E+00  0.00000000E+00
  0.00000000E+00  0.00000000E+00  0.00000000E+00
  0.00000000E+00  0.00000000E+00  0.00000000E+00
  0.00000000E+00  0.00000000E+00  0.00000000E+00
  0.00000000E+00  0.00000000E+00  0.00000000E+00
  0.00000000E+00  0.00000000E+00  0.00000000E+00
  0.00000000E+00  0.00000000E+00  0.00000000E+00
  0.00000000E+00  0.00000000E+00  0.00000000E+00
  0.00000000E+00  0.00000000E+00  0.00000000E+00
  0.00000000E+00  0.00000000E+00  0.00000000E+00
  0.00000000E+00  0.00000000E+00  0.00000000E+00
  0.00000000E+00  0.00000000E+00  0.00000000E+00
  0.00000000E+00  0.00000000E+00  0.00000000E+00
  0.00000000E+00  0.00000000E+00  0.00000000E+00
  0.00000000E+00  0.00000000E+00  0.00000000E+00
  0.00000000E+00  0.00000000E+00  0.00000000E+00
  0.00000000E+00  0.00000000E+00  0.00000000E+00
  0.00000000E+00  0.00000000E+00  0.00000000E+00
  0.00000000E+00  0.00000000E+00  0.00000000E+00
  0.00000000E+00  0.00000000E+00  0.00000000E+00
  0.00000000E+00  0.00000000E+00  0.00000000E+00
  0.00000000E+00  0.00000000E+00  0.00000000E+00
  0.00000000E+00  0.00000000E+00  0.00000000E+00
  0.00000000E+00  0.00000000E+00  0.00000000E+00
  0.00000000E+00  0.00000000E+00  0.00000000E+00
  0.00000000E+00  0.00000000E+00  0.00000000E+00
  0.00000000E+00  0.00000000E+00  0.00000000E+00
  0.00000000E+00  0.00000000E+00  0.00000000E+00
  0.00000000E+00  0.00000000E+00  0.00000000E+00
  0.00000000E+00  0.00000000E+00  0.00000000E+00
  0.00000000E+00  0.00000000E+00  0.00000000E+00
  0.00000000E+00  0.00000000E+00  0.00000000E+00
  0.00000000E+00  0.00000000E+00  0.00000000E+00
  0.00000000E+00  0.00000000E+00  0.00000000E+00
  0.00000000E+00  0.00000000E+00  0.00000000E+00
  0.00000000E+00  0.00000000E+00  0.00000000E+00
  0.00000000E+00  0.00000000E+00  0.00000000E+00
  0.00000000E+00  0.00000000E+00  0.00000000E+00
  0.00000000E+00  0.00000000E+00  0.00000000E+00
  0.00000000E+00  0.00000000E+00  0.00000000E+00
  0.00000000E+00  0.00000000E+00  0.00000000E+00
  0.00000000E+00  0.00000000E+00  0.00000000E+00
  0.00000000E+00  0.00000000E+00  0.00000000E+00
  0.00000000E+00  0.00000000E+00  0.00000000E+00
  0.00000000E+00  0.00000000E+00  0.00000000E+00
  0.00000000E+00  0.00000000E+00  0.00000000E+00
  0.00000000E+00  0.00000000E+00  0.00000000E+00
  0.00000000E+00  0.00000000E+00  0.00000000E+00
  0.00000000E+00  0.00000000E+00  0.00000000E+00
  0.00000000E+00  0.00000000E+00  0.00000000E+00
  0.00000000E+00  0.00000000E+00  0.00000000E+00
  0.00000000E+00  0.00000000E+00  0.00000000E+00
  0.00000000E+00  0.00000000E+00  0.00000000E+00
  0.00000000E+00  0.00000000E+00  0.00000000E+00
  0.00000000E+00  0.00000000E+00  0.00000000E+00
  0.00000000E+00  0.00000000E+00  0.00000000E+00
  0.00000000E+00  0.00000000E+00  0.00000000E+00
  0.00000000E+00  0.00000000E+00  0.00000000E+00
  0.00000000E+00  0.00000000E+00  0.00000000E+00
  0.00000000E+00  0.00000000E+00  0.00000000E+00
  0.00000000E+00  0.00000000E+00  0.00000000E+00
  0.00000000E+00  0.00000000E+00  0.00000000E+00
  0.00000000E+00  0.00000000E+00  0.00000000E+00
  0.00000000E+00  0.00000000E+00  0.00000000E+00
  0.00000000E+00  0.00000000E+00  0.00000000E+00
  0.00000000E+00  0.00000000E+00  0.00000000E+00
  0.00000000E+00  0.00000000E+00  0.00000000E+00
  0.00000000E+00  0.00000000E+00  0.00000000E+00
  0.00000000E+00  0.00000000E+00  0.00000000E+00
  0.00000000E+00  0.00000000E+00  0.00000000E+00
