Ir(111) surface                         
   1.00000000000000     
    13.6036739348999998    0.0000000000000000    0.0000000000000000
    -6.8018385362000000   11.7811263066999992    0.0000000000000000
     0.0000000000000000    0.0000000000000000   24.3532371521000002
   Ir   C    N    Pd   Ir
   100    46     3     1     1
Selective dynamics
Direct
  0.0000000000000000  0.0000000000000000  0.0895158200000026   F   F   F
  0.0000000000000000  0.2000000029999995  0.0895158200000026   F   F   F
  0.0000000000000000  0.4000000059999991  0.0895158200000026   F   F   F
  0.0000000000000000  0.6000000240000034  0.0895158200000026   F   F   F
  0.0000000000000000  0.8000000119999982  0.0895158200000026   F   F   F
  0.2000000029999995  0.0000000000000000  0.0895158200000026   F   F   F
  0.2000000029999995  0.2000000029999995  0.0895158200000026   F   F   F
  0.2000000029999995  0.4000000059999991  0.0895158200000026   F   F   F
  0.2000000029999995  0.6000000240000034  0.0895158200000026   F   F   F
  0.2000000029999995  0.8000000119999982  0.0895158200000026   F   F   F
  0.4000000059999991  0.0000000000000000  0.0895158200000026   F   F   F
  0.4000000059999991  0.2000000029999995  0.0895158200000026   F   F   F
  0.4000000059999991  0.4000000059999991  0.0895158200000026   F   F   F
  0.4000000059999991  0.6000000240000034  0.0895158200000026   F   F   F
  0.4000000059999991  0.8000000119999982  0.0895158200000026   F   F   F
  0.6000000240000034  0.0000000000000000  0.0895158200000026   F   F   F
  0.6000000240000034  0.2000000029999995  0.0895158200000026   F   F   F
  0.6000000240000034  0.4000000059999991  0.0895158200000026   F   F   F
  0.6000000240000034  0.6000000240000034  0.0895158200000026   F   F   F
  0.6000000240000034  0.8000000119999982  0.0895158200000026   F   F   F
  0.8000000119999982  0.0000000000000000  0.0895158200000026   F   F   F
  0.8000000119999982  0.2000000029999995  0.0895158200000026   F   F   F
  0.8000000119999982  0.4000000059999991  0.0895158200000026   F   F   F
  0.8000000119999982  0.6000000240000034  0.0895158200000026   F   F   F
  0.8000000119999982  0.8000000119999982  0.0895158200000026   F   F   F
  0.0666666699999965  0.1333333400000001  0.1807345149999975   F   F   F
  0.0666666699999965  0.3333333429999996  0.1807345149999975   F   F   F
  0.0666666699999965  0.5333333609999968  0.1807345149999975   F   F   F
  0.0666666699999965  0.7333333489999987  0.1807345149999975   F   F   F
  0.0666666699999965  0.9333333370000005  0.1807345149999975   F   F   F
  0.2666666809999967  0.1333333400000001  0.1807345149999975   F   F   F
  0.2666666809999967  0.3333333429999996  0.1807345149999975   F   F   F
  0.2666666809999967  0.5333333609999968  0.1807345149999975   F   F   F
  0.2666666809999967  0.7333333489999987  0.1807345149999975   F   F   F
  0.2666666809999967  0.9333333370000005  0.1807345149999975   F   F   F
  0.4666666689999985  0.1333333400000001  0.1807345149999975   F   F   F
  0.4666666689999985  0.3333333429999996  0.1807345149999975   F   F   F
  0.4666666689999985  0.5333333609999968  0.1807345149999975   F   F   F
  0.4666666689999985  0.7333333489999987  0.1807345149999975   F   F   F
  0.4666666689999985  0.9333333370000005  0.1807345149999975   F   F   F
  0.6666666870000029  0.1333333400000001  0.1807345149999975   F   F   F
  0.6666666870000029  0.3333333429999996  0.1807345149999975   F   F   F
  0.6666666870000029  0.5333333609999968  0.1807345149999975   F   F   F
  0.6666666870000029  0.7333333489999987  0.1807345149999975   F   F   F
  0.6666666870000029  0.9333333370000005  0.1807345149999975   F   F   F
  0.8666666749999976  0.1333333400000001  0.1807345149999975   F   F   F
  0.8666666749999976  0.3333333429999996  0.1807345149999975   F   F   F
  0.8666666749999976  0.5333333609999968  0.1807345149999975   F   F   F
  0.8666666749999976  0.7333333489999987  0.1807345149999975   F   F   F
  0.8666666749999976  0.9333333370000005  0.1807345149999975   F   F   F
  0.1333109633862380  0.0663303734134376  0.2708813274814639   T   T   T
  0.1331405253161272  0.2660221800722205  0.2709821960443505   T   T   T
  0.1342410556267462  0.4661312930174156  0.2717096377212680   T   T   T
  0.1335766582456749  0.6664115970916781  0.2710928491801340   T   T   T
  0.1333294146223407  0.8664600018704157  0.2710552936526220   T   T   T
  0.3329657077578444  0.0658580295193625  0.2705098728407370   T   T   T
  0.3334186797462010  0.2659125597016980  0.2704911263302707   T   T   T
  0.3341678607555534  0.4658065247213046  0.2719190070980978   T   T   T
  0.3338552362783259  0.6657363510025448  0.2717147302734484   T   T   T
  0.3332469576593569  0.8661217161988398  0.2708439413350725   T   T   T
  0.5334123461657376  0.0663575517922008  0.2706279255494243   T   T   T
  0.5336431430789362  0.2663397701645575  0.2706165183491538   T   T   T
  0.5340696941470902  0.4665674877986695  0.2704932783489148   T   T   T
  0.5339555673601940  0.6668356364404256  0.2709925431654759   T   T   T
  0.5334232366672225  0.8664113931098827  0.2707889445787502   T   T   T
  0.7334983730599638  0.0664780570269523  0.2706411387718495   T   T   T
  0.7336170261652541  0.2665612191417570  0.2706267247168148   T   T   T
  0.7341249326917541  0.4670190010702269  0.2705084884144558   T   T   T
  0.7336536485224318  0.6666752885539032  0.2708831863723987   T   T   T
  0.7333952332176631  0.8663880653623971  0.2707678162123195   T   T   T
  0.9335898439151252  0.0665770925584143  0.2707654373179970   T   T   T
  0.9335687086613911  0.2665588960546901  0.2707853203586644   T   T   T
  0.9338603413420896  0.4667388444162209  0.2708411215202668   T   T   T
  0.9335265328930749  0.6666564882645595  0.2710557730728857   T   T   T
  0.9333968510726124  0.8665840150177531  0.2710344271149974   T   T   T
  0.0014370766393195  0.9986200081953287  0.3642891304892649   T   T   T
  0.0006704353877253  0.1984238438605170  0.3636096798732709   T   T   T
  0.0009837206515884  0.3987489601778672  0.3639024558604143   T   T   T
  0.0012524966181705  0.5987506460933043  0.3644391290566101   T   T   T
  0.0012252428297924  0.7987551616126747  0.3644724684906467   T   T   T
  0.2014686114438926  0.9994510413825453  0.3644982820046223   T   T   T
  0.2023339292543060  0.2001050566560896  0.3660479539874467   T   T   T
  0.2044846235263592  0.3987802864065063  0.3655022580796052   T   T   T
  0.2020507039217185  0.5979353264601754  0.3656424255379428   T   T   T
  0.2012288253406915  0.7987242170561079  0.3644408349870880   T   T   T
  0.4009600420119904  0.9984465219596396  0.3638491081044786   T   T   T
  0.4017657531767905  0.1984916378020601  0.3634464263999467   T   T   T
  0.4034780990246190  0.3965133393622829  0.3610823860695713   T   T   T
  0.4011915828856878  0.5954747135703531  0.3655377850959592   T   T   T
  0.4012273012213903  0.7989785652550919  0.3639107727427469   T   T   T
  0.6010698847214655  0.9989779634267633  0.3637762417415044   T   T   T
  0.6013761272721729  0.1985964779792827  0.3632641325166295   T   T   T
  0.6014985745268254  0.3982151815860360  0.3634422931924215   T   T   T
  0.5998561927656098  0.5976302820368882  0.3660710005603512   T   T   T
  0.6015426577324411  0.7992839273459394  0.3636219793745719   T   T   T
  0.8011390744968014  0.9988323122055563  0.3639332476175529   T   T   T
  0.8009900534443986  0.1989006737573652  0.3637740876324865   T   T   T
  0.8015283420886359  0.3990149689699077  0.3638447661358076   T   T   T
  0.8005250114214102  0.5985086635654443  0.3645003929667594   T   T   T
  0.8013531393101330  0.7985345394551386  0.3642931071649669   T   T   T
  0.9673437371495370  0.0299320330313040  0.4481919962787813   T   T   T
  0.9650083320071881  0.2286332229517973  0.4481252527320688   T   T   T
  0.9666859136253646  0.4299893552709363  0.4481396623640799   T   T   T
  0.9686105041832055  0.6306268220050094  0.4483845792563653   T   T   T
  0.9690782366301117  0.8308989925443404  0.4482936806054332   T   T   T
  0.1703080495686145  0.0327365576436867  0.4483762814518979   T   T   T
  0.1607772366535350  0.2294575739855289  0.4474164108688086   T   T   T
  0.1594126256841884  0.4229980513497006  0.4474075600756748   T   T   T
  0.1692198670051778  0.6307399202363825  0.4487177844771353   T   T   T
  0.1693450351664444  0.8313625740145382  0.4483858144977597   T   T   T
  0.3700024660985110  0.0310045489461869  0.4481005512146281   T   T   T
  0.3768541034378064  0.2329969478132292  0.4479630782988693   T   T   T
  0.3769841601869700  0.6404849463756314  0.4474443234639429   T   T   T
  0.3699716564473026  0.8332596425302394  0.4481410838799769   T   T   T
  0.5697483917153742  0.0313799607958837  0.4478610451165714   T   T   T
  0.5705829017516539  0.2293893452189684  0.4478510951157731   T   T   T
  0.5670043614414290  0.4231298986073048  0.4479739597892822   T   T   T
  0.5704738944197919  0.6391487532144577  0.4474732315212945   T   T   T
  0.5713276491802178  0.8349437558524148  0.4481309453531613   T   T   T
  0.7689095888834777  0.0310502884319229  0.4479333902551465   T   T   T
  0.7685800914095612  0.2302120618237429  0.4478599762291370   T   T   T
  0.7689679723236952  0.4299630408721646  0.4480996732674256   T   T   T
  0.7672463781512220  0.6296629570618031  0.4483782671914888   T   T   T
  0.7700312704107806  0.8326136114357676  0.4481927306639105   T   T   T
  0.0289834938139133  0.1628384178397029  0.4480769134043717   T   T   T
  0.0282808465103566  0.3630530203832167  0.4480071399203727   T   T   T
  0.0333165695781619  0.5655076325034547  0.4483074998830355   T   T   T
  0.0340042720790322  0.7659708430186724  0.4482622489149815   T   T   T
  0.0341177512447260  0.9664658322996629  0.4480787546086522   T   T   T
  0.2356097760521201  0.1697102436063817  0.4478462239345911   T   T   T
  0.2343361269918081  0.5656086257432574  0.4484154929780718   T   T   T
  0.2344568575626051  0.7666447104897200  0.4483082575764365   T   T   T
  0.2347517557981001  0.9668941788249683  0.4482147452954923   T   T   T
  0.4364421171284547  0.1646853136272778  0.4478688205081685   T   T   T
  0.4369105566537374  0.7716498232440171  0.4480092877124883   T   T   T
  0.4346494683834363  0.9666384675460020  0.4479863181304980   T   T   T
  0.6347062289735986  0.1652569925441479  0.4478020104405363   T   T   T
  0.6352975127407945  0.3635285344710553  0.4478697880557345   T   T   T
  0.6302827953740580  0.5643587425503382  0.4478638065576113   T   T   T
  0.6371177896476939  0.7709635730818007  0.4480871123240425   T   T   T
  0.6351227781529372  0.9673104997726200  0.4479100804013307   T   T   T
  0.8326475735573476  0.1648372385783161  0.4479082135464431   T   T   T
  0.8333192607142931  0.3653082285965846  0.4479845105540488   T   T   T
  0.8330838284459370  0.5652169983308377  0.4482129343825938   T   T   T
  0.8335130717351610  0.7658539192355458  0.4480786756538657   T   T   T
  0.8340446385633368  0.9659159827809994  0.4479884812749435   T   T   T
  0.2143248762470937  0.3567469992631671  0.4523691989332588   T   T   T
  0.4419037723850018  0.3581279722856424  0.4516376558602471   T   T   T
  0.4432268128661987  0.5855530407376914  0.4525262431967917   T   T   T
  0.3668591541374391  0.4322459516175062  0.5075227191385809   T   T   T
  0.3604955220358443  0.4265956257416046  0.6032467333072440   T   T   T
 
  0.00000000E+00  0.00000000E+00  0.00000000E+00
  0.00000000E+00  0.00000000E+00  0.00000000E+00
  0.00000000E+00  0.00000000E+00  0.00000000E+00
  0.00000000E+00  0.00000000E+00  0.00000000E+00
  0.00000000E+00  0.00000000E+00  0.00000000E+00
  0.00000000E+00  0.00000000E+00  0.00000000E+00
  0.00000000E+00  0.00000000E+00  0.00000000E+00
  0.00000000E+00  0.00000000E+00  0.00000000E+00
  0.00000000E+00  0.00000000E+00  0.00000000E+00
  0.00000000E+00  0.00000000E+00  0.00000000E+00
  0.00000000E+00  0.00000000E+00  0.00000000E+00
  0.00000000E+00  0.00000000E+00  0.00000000E+00
  0.00000000E+00  0.00000000E+00  0.00000000E+00
  0.00000000E+00  0.00000000E+00  0.00000000E+00
  0.00000000E+00  0.00000000E+00  0.00000000E+00
  0.00000000E+00  0.00000000E+00  0.00000000E+00
  0.00000000E+00  0.00000000E+00  0.00000000E+00
  0.00000000E+00  0.00000000E+00  0.00000000E+00
  0.00000000E+00  0.00000000E+00  0.00000000E+00
  0.00000000E+00  0.00000000E+00  0.00000000E+00
  0.00000000E+00  0.00000000E+00  0.00000000E+00
  0.00000000E+00  0.00000000E+00  0.00000000E+00
  0.00000000E+00  0.00000000E+00  0.00000000E+00
  0.00000000E+00  0.00000000E+00  0.00000000E+00
  0.00000000E+00  0.00000000E+00  0.00000000E+00
  0.00000000E+00  0.00000000E+00  0.00000000E+00
  0.00000000E+00  0.00000000E+00  0.00000000E+00
  0.00000000E+00  0.00000000E+00  0.00000000E+00
  0.00000000E+00  0.00000000E+00  0.00000000E+00
  0.00000000E+00  0.00000000E+00  0.00000000E+00
  0.00000000E+00  0.00000000E+00  0.00000000E+00
  0.00000000E+00  0.00000000E+00  0.00000000E+00
  0.00000000E+00  0.00000000E+00  0.00000000E+00
  0.00000000E+00  0.00000000E+00  0.00000000E+00
  0.00000000E+00  0.00000000E+00  0.00000000E+00
  0.00000000E+00  0.00000000E+00  0.00000000E+00
  0.00000000E+00  0.00000000E+00  0.00000000E+00
  0.00000000E+00  0.00000000E+00  0.00000000E+00
  0.00000000E+00  0.00000000E+00  0.00000000E+00
  0.00000000E+00  0.00000000E+00  0.00000000E+00
  0.00000000E+00  0.00000000E+00  0.00000000E+00
  0.00000000E+00  0.00000000E+00  0.00000000E+00
  0.00000000E+00  0.00000000E+00  0.00000000E+00
  0.00000000E+00  0.00000000E+00  0.00000000E+00
  0.00000000E+00  0.00000000E+00  0.00000000E+00
  0.00000000E+00  0.00000000E+00  0.00000000E+00
  0.00000000E+00  0.00000000E+00  0.00000000E+00
  0.00000000E+00  0.00000000E+00  0.00000000E+00
  0.00000000E+00  0.00000000E+00  0.00000000E+00
  0.00000000E+00  0.00000000E+00  0.00000000E+00
  0.00000000E+00  0.00000000E+00  0.00000000E+00
  0.00000000E+00  0.00000000E+00  0.00000000E+00
  0.00000000E+00  0.00000000E+00  0.00000000E+00
  0.00000000E+00  0.00000000E+00  0.00000000E+00
  0.00000000E+00  0.00000000E+00  0.00000000E+00
  0.00000000E+00  0.00000000E+00  0.00000000E+00
  0.00000000E+00  0.00000000E+00  0.00000000E+00
  0.00000000E+00  0.00000000E+00  0.00000000E+00
  0.00000000E+00  0.00000000E+00  0.00000000E+00
  0.00000000E+00  0.00000000E+00  0.00000000E+00
  0.00000000E+00  0.00000000E+00  0.00000000E+00
  0.00000000E+00  0.00000000E+00  0.00000000E+00
  0.00000000E+00  0.00000000E+00  0.00000000E+00
  0.00000000E+00  0.00000000E+00  0.00000000E+00
  0.00000000E+00  0.00000000E+00  0.00000000E+00
  0.00000000E+00  0.00000000E+00  0.00000000E+00
  0.00000000E+00  0.00000000E+00  0.00000000E+00
  0.00000000E+00  0.00000000E+00  0.00000000E+00
  0.00000000E+00  0.00000000E+00  0.00000000E+00
  0.00000000E+00  0.00000000E+00  0.00000000E+00
  0.00000000E+00  0.00000000E+00  0.00000000E+00
  0.00000000E+00  0.00000000E+00  0.00000000E+00
  0.00000000E+00  0.00000000E+00  0.00000000E+00
  0.00000000E+00  0.00000000E+00  0.00000000E+00
  0.00000000E+00  0.00000000E+00  0.00000000E+00
  0.00000000E+00  0.00000000E+00  0.00000000E+00
  0.00000000E+00  0.00000000E+00  0.00000000E+00
  0.00000000E+00  0.00000000E+00  0.00000000E+00
  0.00000000E+00  0.00000000E+00  0.00000000E+00
  0.00000000E+00  0.00000000E+00  0.00000000E+00
  0.00000000E+00  0.00000000E+00  0.00000000E+00
  0.00000000E+00  0.00000000E+00  0.00000000E+00
  0.00000000E+00  0.00000000E+00  0.00000000E+00
  0.00000000E+00  0.00000000E+00  0.00000000E+00
  0.00000000E+00  0.00000000E+00  0.00000000E+00
  0.00000000E+00  0.00000000E+00  0.00000000E+00
  0.00000000E+00  0.00000000E+00  0.00000000E+00
  0.00000000E+00  0.00000000E+00  0.00000000E+00
  0.00000000E+00  0.00000000E+00  0.00000000E+00
  0.00000000E+00  0.00000000E+00  0.00000000E+00
  0.00000000E+00  0.00000000E+00  0.00000000E+00
  0.00000000E+00  0.00000000E+00  0.00000000E+00
  0.00000000E+00  0.00000000E+00  0.00000000E+00
  0.00000000E+00  0.00000000E+00  0.00000000E+00
  0.00000000E+00  0.00000000E+00  0.00000000E+00
  0.00000000E+00  0.00000000E+00  0.00000000E+00
  0.00000000E+00  0.00000000E+00  0.00000000E+00
  0.00000000E+00  0.00000000E+00  0.00000000E+00
  0.00000000E+00  0.00000000E+00  0.00000000E+00
  0.00000000E+00  0.00000000E+00  0.00000000E+00
  0.00000000E+00  0.00000000E+00  0.00000000E+00
  0.00000000E+00  0.00000000E+00  0.00000000E+00
  0.00000000E+00  0.00000000E+00  0.00000000E+00
  0.00000000E+00  0.00000000E+00  0.00000000E+00
  0.00000000E+00  0.00000000E+00  0.00000000E+00
  0.00000000E+00  0.00000000E+00  0.00000000E+00
  0.00000000E+00  0.00000000E+00  0.00000000E+00
  0.00000000E+00  0.00000000E+00  0.00000000E+00
  0.00000000E+00  0.00000000E+00  0.00000000E+00
  0.00000000E+00  0.00000000E+00  0.00000000E+00
  0.00000000E+00  0.00000000E+00  0.00000000E+00
  0.00000000E+00  0.00000000E+00  0.00000000E+00
  0.00000000E+00  0.00000000E+00  0.00000000E+00
  0.00000000E+00  0.00000000E+00  0.00000000E+00
  0.00000000E+00  0.00000000E+00  0.00000000E+00
  0.00000000E+00  0.00000000E+00  0.00000000E+00
  0.00000000E+00  0.00000000E+00  0.00000000E+00
  0.00000000E+00  0.00000000E+00  0.00000000E+00
  0.00000000E+00  0.00000000E+00  0.00000000E+00
  0.00000000E+00  0.00000000E+00  0.00000000E+00
  0.00000000E+00  0.00000000E+00  0.00000000E+00
  0.00000000E+00  0.00000000E+00  0.00000000E+00
  0.00000000E+00  0.00000000E+00  0.00000000E+00
  0.00000000E+00  0.00000000E+00  0.00000000E+00
  0.00000000E+00  0.00000000E+00  0.00000000E+00
  0.00000000E+00  0.00000000E+00  0.00000000E+00
  0.00000000E+00  0.00000000E+00  0.00000000E+00
  0.00000000E+00  0.00000000E+00  0.00000000E+00
  0.00000000E+00  0.00000000E+00  0.00000000E+00
  0.00000000E+00  0.00000000E+00  0.00000000E+00
  0.00000000E+00  0.00000000E+00  0.00000000E+00
  0.00000000E+00  0.00000000E+00  0.00000000E+00
  0.00000000E+00  0.00000000E+00  0.00000000E+00
  0.00000000E+00  0.00000000E+00  0.00000000E+00
  0.00000000E+00  0.00000000E+00  0.00000000E+00
  0.00000000E+00  0.00000000E+00  0.00000000E+00
  0.00000000E+00  0.00000000E+00  0.00000000E+00
  0.00000000E+00  0.00000000E+00  0.00000000E+00
  0.00000000E+00  0.00000000E+00  0.00000000E+00
  0.00000000E+00  0.00000000E+00  0.00000000E+00
  0.00000000E+00  0.00000000E+00  0.00000000E+00
  0.00000000E+00  0.00000000E+00  0.00000000E+00
  0.00000000E+00  0.00000000E+00  0.00000000E+00
  0.00000000E+00  0.00000000E+00  0.00000000E+00
  0.00000000E+00  0.00000000E+00  0.00000000E+00
  0.00000000E+00  0.00000000E+00  0.00000000E+00
  0.00000000E+00  0.00000000E+00  0.00000000E+00
  0.00000000E+00  0.00000000E+00  0.00000000E+00
  0.00000000E+00  0.00000000E+00  0.00000000E+00
  0.00000000E+00  0.00000000E+00  0.00000000E+00
  0.00000000E+00  0.00000000E+00  0.00000000E+00
