Mg0(001) bulk                           
   1.00000000000000     
    17.1110649109000015    0.0000000000000000    0.0000000000000000
     0.0000000000000000    8.5555324553999998    0.0000000000000000
     0.0000000000000000    0.0000000000000000   22.3424186706999990
   Mg   O    C    N    Pd   Ir
    64    64    52     3     1     1
Selective dynamics
Direct
  0.0000000000000000  0.0000000000000000  0.0500000010000008   F   F   F
  0.0000000000000000  0.5000000000000000  0.0500000010000008   F   F   F
  0.2500000000000000  0.0000000000000000  0.0500000010000008   F   F   F
  0.2500000000000000  0.5000000000000000  0.0500000010000008   F   F   F
  0.5000000000000000  0.0000000000000000  0.0500000010000008   F   F   F
  0.5000000000000000  0.5000000000000000  0.0500000010000008   F   F   F
  0.7500000000000000  0.0000000000000000  0.0500000010000008   F   F   F
  0.7500000000000000  0.5000000000000000  0.0500000010000008   F   F   F
  0.1250000000000000  0.2500000000000000  0.0500000010000008   F   F   F
  0.1250000000000000  0.7500000000000000  0.0500000010000008   F   F   F
  0.3750000000000000  0.2500000000000000  0.0500000010000008   F   F   F
  0.3750000000000000  0.7500000000000000  0.0500000010000008   F   F   F
  0.6250000000000000  0.2500000000000000  0.0500000010000008   F   F   F
  0.6250000000000000  0.7500000000000000  0.0500000010000008   F   F   F
  0.8750000000000000  0.2500000000000000  0.0500000010000008   F   F   F
  0.8750000000000000  0.7500000000000000  0.0500000010000008   F   F   F
  0.0000000000000000  0.2500000000000000  0.1457319410000011   F   F   F
  0.0000000000000000  0.7500000000000000  0.1457319410000011   F   F   F
  0.2500000000000000  0.2500000000000000  0.1457319410000011   F   F   F
  0.2500000000000000  0.7500000000000000  0.1457319410000011   F   F   F
  0.5000000000000000  0.2500000000000000  0.1457319410000011   F   F   F
  0.5000000000000000  0.7500000000000000  0.1457319410000011   F   F   F
  0.7500000000000000  0.2500000000000000  0.1457319410000011   F   F   F
  0.7500000000000000  0.7500000000000000  0.1457319410000011   F   F   F
  0.1250000000000000  0.0000000000000000  0.1457319410000011   F   F   F
  0.1250000000000000  0.5000000000000000  0.1457319410000011   F   F   F
  0.3750000000000000  0.0000000000000000  0.1457319410000011   F   F   F
  0.3750000000000000  0.5000000000000000  0.1457319410000011   F   F   F
  0.6250000000000000  0.0000000000000000  0.1457319410000011   F   F   F
  0.6250000000000000  0.5000000000000000  0.1457319410000011   F   F   F
  0.8750000000000000  0.0000000000000000  0.1457319410000011   F   F   F
  0.8750000000000000  0.5000000000000000  0.1457319410000011   F   F   F
  0.9999912650664071  0.0000230003676736  0.2392100143514795   T   T   T
  0.9999877628169764  0.4999865521399752  0.2391938074934001   T   T   T
  0.2500317736454637  0.0001534586189001  0.2392610153495564   T   T   T
  0.2500105408254297  0.5000369549133065  0.2392370767142280   T   T   T
  0.4999947958825876  0.0004312168864056  0.2394701167435994   T   T   T
  0.4999737883439126  0.4999666720207500  0.2393630807740662   T   T   T
  0.7499747582088767  0.0001181903766155  0.2392618731416389   T   T   T
  0.7499415026838993  0.4999715995999416  0.2392689411987128   T   T   T
  0.1250571122028797  0.2500229448881275  0.2392276071809936   T   T   T
  0.1250285606144890  0.7500999837660012  0.2392104017883615   T   T   T
  0.3751113189346975  0.2500607199159682  0.2394069309161781   T   T   T
  0.3750546537099946  0.7501725089534329  0.2393270695220580   T   T   T
  0.6248534341484935  0.2500325667291195  0.2394015819521432   T   T   T
  0.6248982539647945  0.7500816191141852  0.2393256387727236   T   T   T
  0.8749499036130286  0.2500313600946077  0.2392333729354702   T   T   T
  0.8749806738435559  0.7500634892598234  0.2392062037978013   T   T   T
  0.9999255453709336  0.2498870998215285  0.3313997240694548   T   T   T
  0.9999220359040368  0.7499000193910512  0.3313963703842607   T   T   T
  0.2498860738333890  0.2500139686760791  0.3317374914882042   T   T   T
  0.2498434629548051  0.7501179637153139  0.3315913548562558   T   T   T
  0.5000772980522131  0.2508316824958669  0.3326755921451144   T   T   T
  0.5000431494863975  0.7498782776402032  0.3319471840428733   T   T   T
  0.7501047402900005  0.2498945843277085  0.3316271729116484   T   T   T
  0.7501558053706183  0.7500187031781173  0.3314456008457053   T   T   T
  0.1250892242022561 -0.0000254131169582  0.3315291748844063   T   T   T
  0.1250798536401194  0.4999691950620165  0.3314700798450729   T   T   T
  0.3749054935597341  0.0001925771155024  0.3317362299519776   T   T   T
  0.3749326035572758  0.5000122469269962  0.3315038134815578   T   T   T
  0.6249742560105749  0.0001092572285438  0.3317894350261295   T   T   T
  0.6247799855272071  0.4998628440976712  0.3316938828992020   T   T   T
  0.8750398473123955 -0.0000525948780596  0.3316383329658542   T   T   T
  0.8750430311598603  0.4999167729833959  0.3315854692689092   T   T   T
  0.0000000000000000  0.2500000000000000  0.0500000010000008   F   F   F
  0.0000000000000000  0.7500000000000000  0.0500000010000008   F   F   F
  0.2500000000000000  0.2500000000000000  0.0500000010000008   F   F   F
  0.2500000000000000  0.7500000000000000  0.0500000010000008   F   F   F
  0.5000000000000000  0.2500000000000000  0.0500000010000008   F   F   F
  0.5000000000000000  0.7500000000000000  0.0500000010000008   F   F   F
  0.7500000000000000  0.2500000000000000  0.0500000010000008   F   F   F
  0.7500000000000000  0.7500000000000000  0.0500000010000008   F   F   F
  0.1250000000000000  0.0000000000000000  0.0500000010000008   F   F   F
  0.1250000000000000  0.5000000000000000  0.0500000010000008   F   F   F
  0.3750000000000000  0.0000000000000000  0.0500000010000008   F   F   F
  0.3750000000000000  0.5000000000000000  0.0500000010000008   F   F   F
  0.6250000000000000  0.0000000000000000  0.0500000010000008   F   F   F
  0.6250000000000000  0.5000000000000000  0.0500000010000008   F   F   F
  0.8750000000000000  0.0000000000000000  0.0500000010000008   F   F   F
  0.8750000000000000  0.5000000000000000  0.0500000010000008   F   F   F
  0.0000000000000000  0.0000000000000000  0.1457319410000011   F   F   F
  0.0000000000000000  0.5000000000000000  0.1457319410000011   F   F   F
  0.2500000000000000  0.0000000000000000  0.1457319410000011   F   F   F
  0.2500000000000000  0.5000000000000000  0.1457319410000011   F   F   F
  0.5000000000000000  0.0000000000000000  0.1457319410000011   F   F   F
  0.5000000000000000  0.5000000000000000  0.1457319410000011   F   F   F
  0.7500000000000000  0.0000000000000000  0.1457319410000011   F   F   F
  0.7500000000000000  0.5000000000000000  0.1457319410000011   F   F   F
  0.1250000000000000  0.2500000000000000  0.1457319410000011   F   F   F
  0.1250000000000000  0.7500000000000000  0.1457319410000011   F   F   F
  0.3750000000000000  0.2500000000000000  0.1457319410000011   F   F   F
  0.3750000000000000  0.7500000000000000  0.1457319410000011   F   F   F
  0.6250000000000000  0.2500000000000000  0.1457319410000011   F   F   F
  0.6250000000000000  0.7500000000000000  0.1457319410000011   F   F   F
  0.8750000000000000  0.2500000000000000  0.1457319410000011   F   F   F
  0.8750000000000000  0.7500000000000000  0.1457319410000011   F   F   F
  0.0000139462026186  0.2500103277120710  0.2389121070310124   T   T   T
  0.0000116398164857  0.7500075242990509  0.2389047479027020   T   T   T
  0.2501003627502518  0.2500990693014011  0.2390229781834584   T   T   T
  0.2500880311379542  0.7501158652386978  0.2389841811532331   T   T   T
  0.4999830655035249  0.2501176347411105  0.2393247649825134   T   T   T
  0.4999814199234678  0.7502190320355534  0.2391654180044034   T   T   T
  0.7498831119327013  0.2500576801794037  0.2390145444644809   T   T   T
  0.7498847266227336  0.7500244951763342  0.2389695473789884   T   T   T
  0.1250091524585238  0.0000580806196947  0.2389389249517374   T   T   T
  0.1250152477714139  0.5000501430605155  0.2389265403586632   T   T   T
  0.3750819355198728  0.0001335050723351  0.2391221726983316   T   T   T
  0.3750323659187120  0.5000964339056463  0.2390233356919242   T   T   T
  0.6249285973676124  0.0000625178227610  0.2391312323909119   T   T   T
  0.6249384020850411  0.5000503207631884  0.2390814638738659   T   T   T
  0.8749657489392731  0.0000537715122905  0.2389586028538651   T   T   T
  0.8749447171819773  0.5000374273216649  0.2389574975755056   T   T   T
  0.0000162759951396 -0.0000111954244332  0.3338871765613974   T   T   T
  0.0000131533365945  0.5000004210052833  0.3338624022796577   T   T   T
  0.2499633831783261  0.0001673607613889  0.3338470480804051   T   T   T
  0.2499689528991268  0.5002878889676117  0.3338757966590544   T   T   T
  0.4999837336750697  0.0003129025974055  0.3345050529157699   T   T   T
  0.4998733439673112  0.5004603615693012  0.3341910142109507   T   T   T
  0.7500232152827493  0.0000144594836118  0.3339782953421911   T   T   T
  0.7499839738772597  0.5001419904257274  0.3340896379891004   T   T   T
  0.1249712147274177  0.2500962665511239  0.3337920824220462   T   T   T
  0.1249620388440739  0.7500726757037595  0.3337732985653378   T   T   T
  0.3748853880021077  0.2503244166555216  0.3343513770395258   T   T   T
  0.3749285411796966  0.7500754893195760  0.3342309863345785   T   T   T
  0.6251079231337542  0.2502100516382609  0.3342700493770467   T   T   T
  0.6250370596315667  0.7499554526173512  0.3342057135588706   T   T   T
  0.8750175527350675  0.2501067075775416  0.3337087915255650   T   T   T
  0.8750141326985836  0.7500743218656853  0.3336780614792354   T   T   T
  0.0179661558304946  0.9523804463944600  0.4776830908800393   T   T   T
  0.1608849778480640  0.9524482472034871  0.4770173094538397   T   T   T
  0.3042154187661733  0.9526219646242524  0.4780611534621927   T   T   T
  0.4468015353707888  0.9470237391255152  0.4804662305173883   T   T   T
  0.5890339267233261  0.9471135703733373  0.4799108863891595   T   T   T
  0.7316936916016036  0.9525469125921264  0.4781097220761676   T   T   T
  0.8749864034293133  0.9524697809531967  0.4766114981146466   T   T   T
  0.0179864913441861  0.1187447442100775  0.4775610007164005   T   T   T
  0.1612615028191477  0.1188479431314522  0.4770679429321442   T   T   T
  0.3055955102068949  0.1199440303087655  0.4792889373175881   T   T   T
  0.4487054366463845  0.1129716180719995  0.4837278939477044   T   T   T
  0.5871387115952440  0.1130628359872847  0.4831920045002281   T   T   T
  0.7303515637930602  0.1199333569756919  0.4792478886042351   T   T   T
  0.8746009869112840  0.1188776188904219  0.4767224106025139   T   T   T
  0.0179731219811886  0.4522713347440587  0.4773073250987436   T   T   T
  0.1607763044283929  0.4521694277710798  0.4763721805605127   T   T   T
  0.3033223068853088  0.4520009872299722  0.4780672763933415   T   T   T
  0.7326134055499179  0.4519480771201021  0.4784301910913402   T   T   T
  0.8751101614357036  0.4521986778391925  0.4760853322088059   T   T   T
  0.0179794601407488  0.6187021213169066  0.4772997523089546   T   T   T
  0.1606099346492677  0.6188441001660687  0.4765472462437852   T   T   T
  0.3031018540241125  0.6183104769357155  0.4777243749445629   T   T   T
  0.4443613354730372  0.6141675241471385  0.4837320356969875   T   T   T
  0.5914642519089247  0.6141761617024527  0.4832700697413194   T   T   T
  0.7328139088149431  0.6183416445238399  0.4779787278449009   T   T   T
  0.8752234718199149  0.6188773658647267  0.4761930531015791   T   T   T
  0.0896319911811713  0.2021412841243107  0.4773961461211274   T   T   T
  0.2330755140793452  0.2021922821764106  0.4772966949525981   T   T   T
  0.3774396939160165  0.2025749177185237  0.4829389546854552   T   T   T
  0.6584665891488872  0.2026687889631573  0.4824545923913672   T   T   T
  0.8028221315676791  0.2021953029800647  0.4774573737403210   T   T   T
  0.9462960719824021  0.2022303250488550  0.4769474667532426   T   T   T
  0.0894103678991078  0.3687207961960854  0.4771814667466361   T   T   T
  0.2322313060341179  0.3680752814382162  0.4765950130710094   T   T   T
  0.3754465557687114  0.3719057674279249  0.4831789543403262   T   T   T
  0.6604830509828665  0.3718845564107001  0.4828588692404312   T   T   T
  0.8036514333447664  0.3681047560552715  0.4768783353846708   T   T   T
  0.9465214384848480  0.3687585959592508  0.4767684304384375   T   T   T
  0.0893458417364123  0.7022152540476105  0.4773107194163780   T   T   T
  0.2320216265501007  0.7028323599766170  0.4765011370434562   T   T   T
  0.3742207543884497  0.7011479257834541  0.4790236212278098   T   T   T
  0.5179095451314401  0.6947316769457293  0.4832014551257093   T   T   T
  0.6616598758006920  0.7012257436076916  0.4788555864815716   T   T   T
  0.8038386492159777  0.7028160012568919  0.4766839311761082   T   T   T
  0.9465516502106920  0.7023052463048480  0.4767917497320353   T   T   T
  0.0894655400733280  0.8689356897683779  0.4775112085525002   T   T   T
  0.2325487476083806  0.8693484564209993  0.4768502910177850   T   T   T
  0.3748223199258922  0.8671701150149437  0.4786517385460321   T   T   T
  0.5179104202855408  0.8611081370881187  0.4810557128179610   T   T   T
  0.6610860938685784  0.8672023624652668  0.4783708848784984   T   T   T
  0.8033060051045098  0.8693335995768616  0.4769373048141334   T   T   T
  0.9464488871685481  0.8689774316217660  0.4770445855448138   T   T   T
  0.4416195161320096  0.4568727838454084  0.4894340435111444   T   T   T
  0.5940909374395664  0.4567828420031812  0.4884994071727994   T   T   T
  0.5179498474742797  0.1874796752946123  0.4883642408689660   T   T   T
  0.5182655610752623  0.3658332847650829  0.5574068929502197   T   T   T
  0.5165086591595628  0.3595386464932553  0.6614323613360718   T   T   T
 
  0.00000000E+00  0.00000000E+00  0.00000000E+00
  0.00000000E+00  0.00000000E+00  0.00000000E+00
  0.00000000E+00  0.00000000E+00  0.00000000E+00
  0.00000000E+00  0.00000000E+00  0.00000000E+00
  0.00000000E+00  0.00000000E+00  0.00000000E+00
  0.00000000E+00  0.00000000E+00  0.00000000E+00
  0.00000000E+00  0.00000000E+00  0.00000000E+00
  0.00000000E+00  0.00000000E+00  0.00000000E+00
  0.00000000E+00  0.00000000E+00  0.00000000E+00
  0.00000000E+00  0.00000000E+00  0.00000000E+00
  0.00000000E+00  0.00000000E+00  0.00000000E+00
  0.00000000E+00  0.00000000E+00  0.00000000E+00
  0.00000000E+00  0.00000000E+00  0.00000000E+00
  0.00000000E+00  0.00000000E+00  0.00000000E+00
  0.00000000E+00  0.00000000E+00  0.00000000E+00
  0.00000000E+00  0.00000000E+00  0.00000000E+00
  0.00000000E+00  0.00000000E+00  0.00000000E+00
  0.00000000E+00  0.00000000E+00  0.00000000E+00
  0.00000000E+00  0.00000000E+00  0.00000000E+00
  0.00000000E+00  0.00000000E+00  0.00000000E+00
  0.00000000E+00  0.00000000E+00  0.00000000E+00
  0.00000000E+00  0.00000000E+00  0.00000000E+00
  0.00000000E+00  0.00000000E+00  0.00000000E+00
  0.00000000E+00  0.00000000E+00  0.00000000E+00
  0.00000000E+00  0.00000000E+00  0.00000000E+00
  0.00000000E+00  0.00000000E+00  0.00000000E+00
  0.00000000E+00  0.00000000E+00  0.00000000E+00
  0.00000000E+00  0.00000000E+00  0.00000000E+00
  0.00000000E+00  0.00000000E+00  0.00000000E+00
  0.00000000E+00  0.00000000E+00  0.00000000E+00
  0.00000000E+00  0.00000000E+00  0.00000000E+00
  0.00000000E+00  0.00000000E+00  0.00000000E+00
  0.00000000E+00  0.00000000E+00  0.00000000E+00
  0.00000000E+00  0.00000000E+00  0.00000000E+00
  0.00000000E+00  0.00000000E+00  0.00000000E+00
  0.00000000E+00  0.00000000E+00  0.00000000E+00
  0.00000000E+00  0.00000000E+00  0.00000000E+00
  0.00000000E+00  0.00000000E+00  0.00000000E+00
  0.00000000E+00  0.00000000E+00  0.00000000E+00
  0.00000000E+00  0.00000000E+00  0.00000000E+00
  0.00000000E+00  0.00000000E+00  0.00000000E+00
  0.00000000E+00  0.00000000E+00  0.00000000E+00
  0.00000000E+00  0.00000000E+00  0.00000000E+00
  0.00000000E+00  0.00000000E+00  0.00000000E+00
  0.00000000E+00  0.00000000E+00  0.00000000E+00
  0.00000000E+00  0.00000000E+00  0.00000000E+00
  0.00000000E+00  0.00000000E+00  0.00000000E+00
  0.00000000E+00  0.00000000E+00  0.00000000E+00
  0.00000000E+00  0.00000000E+00  0.00000000E+00
  0.00000000E+00  0.00000000E+00  0.00000000E+00
  0.00000000E+00  0.00000000E+00  0.00000000E+00
  0.00000000E+00  0.00000000E+00  0.00000000E+00
  0.00000000E+00  0.00000000E+00  0.00000000E+00
  0.00000000E+00  0.00000000E+00  0.00000000E+00
  0.00000000E+00  0.00000000E+00  0.00000000E+00
  0.00000000E+00  0.00000000E+00  0.00000000E+00
  0.00000000E+00  0.00000000E+00  0.00000000E+00
  0.00000000E+00  0.00000000E+00  0.00000000E+00
  0.00000000E+00  0.00000000E+00  0.00000000E+00
  0.00000000E+00  0.00000000E+00  0.00000000E+00
  0.00000000E+00  0.00000000E+00  0.00000000E+00
  0.00000000E+00  0.00000000E+00  0.00000000E+00
  0.00000000E+00  0.00000000E+00  0.00000000E+00
  0.00000000E+00  0.00000000E+00  0.00000000E+00
  0.00000000E+00  0.00000000E+00  0.00000000E+00
  0.00000000E+00  0.00000000E+00  0.00000000E+00
  0.00000000E+00  0.00000000E+00  0.00000000E+00
  0.00000000E+00  0.00000000E+00  0.00000000E+00
  0.00000000E+00  0.00000000E+00  0.00000000E+00
  0.00000000E+00  0.00000000E+00  0.00000000E+00
  0.00000000E+00  0.00000000E+00  0.00000000E+00
  0.00000000E+00  0.00000000E+00  0.00000000E+00
  0.00000000E+00  0.00000000E+00  0.00000000E+00
  0.00000000E+00  0.00000000E+00  0.00000000E+00
  0.00000000E+00  0.00000000E+00  0.00000000E+00
  0.00000000E+00  0.00000000E+00  0.00000000E+00
  0.00000000E+00  0.00000000E+00  0.00000000E+00
  0.00000000E+00  0.00000000E+00  0.00000000E+00
  0.00000000E+00  0.00000000E+00  0.00000000E+00
  0.00000000E+00  0.00000000E+00  0.00000000E+00
  0.00000000E+00  0.00000000E+00  0.00000000E+00
  0.00000000E+00  0.00000000E+00  0.00000000E+00
  0.00000000E+00  0.00000000E+00  0.00000000E+00
  0.00000000E+00  0.00000000E+00  0.00000000E+00
  0.00000000E+00  0.00000000E+00  0.00000000E+00
  0.00000000E+00  0.00000000E+00  0.00000000E+00
  0.00000000E+00  0.00000000E+00  0.00000000E+00
  0.00000000E+00  0.00000000E+00  0.00000000E+00
  0.00000000E+00  0.00000000E+00  0.00000000E+00
  0.00000000E+00  0.00000000E+00  0.00000000E+00
  0.00000000E+00  0.00000000E+00  0.00000000E+00
  0.00000000E+00  0.00000000E+00  0.00000000E+00
  0.00000000E+00  0.00000000E+00  0.00000000E+00
  0.00000000E+00  0.00000000E+00  0.00000000E+00
  0.00000000E+00  0.00000000E+00  0.00000000E+00
  0.00000000E+00  0.00000000E+00  0.00000000E+00
  0.00000000E+00  0.00000000E+00  0.00000000E+00
  0.00000000E+00  0.00000000E+00  0.00000000E+00
  0.00000000E+00  0.00000000E+00  0.00000000E+00
  0.00000000E+00  0.00000000E+00  0.00000000E+00
  0.00000000E+00  0.00000000E+00  0.00000000E+00
  0.00000000E+00  0.00000000E+00  0.00000000E+00
  0.00000000E+00  0.00000000E+00  0.00000000E+00
  0.00000000E+00  0.00000000E+00  0.00000000E+00
  0.00000000E+00  0.00000000E+00  0.00000000E+00
  0.00000000E+00  0.00000000E+00  0.00000000E+00
  0.00000000E+00  0.00000000E+00  0.00000000E+00
  0.00000000E+00  0.00000000E+00  0.00000000E+00
  0.00000000E+00  0.00000000E+00  0.00000000E+00
  0.00000000E+00  0.00000000E+00  0.00000000E+00
  0.00000000E+00  0.00000000E+00  0.00000000E+00
  0.00000000E+00  0.00000000E+00  0.00000000E+00
  0.00000000E+00  0.00000000E+00  0.00000000E+00
  0.00000000E+00  0.00000000E+00  0.00000000E+00
  0.00000000E+00  0.00000000E+00  0.00000000E+00
  0.00000000E+00  0.00000000E+00  0.00000000E+00
  0.00000000E+00  0.00000000E+00  0.00000000E+00
  0.00000000E+00  0.00000000E+00  0.00000000E+00
  0.00000000E+00  0.00000000E+00  0.00000000E+00
  0.00000000E+00  0.00000000E+00  0.00000000E+00
  0.00000000E+00  0.00000000E+00  0.00000000E+00
  0.00000000E+00  0.00000000E+00  0.00000000E+00
  0.00000000E+00  0.00000000E+00  0.00000000E+00
  0.00000000E+00  0.00000000E+00  0.00000000E+00
  0.00000000E+00  0.00000000E+00  0.00000000E+00
  0.00000000E+00  0.00000000E+00  0.00000000E+00
  0.00000000E+00  0.00000000E+00  0.00000000E+00
  0.00000000E+00  0.00000000E+00  0.00000000E+00
  0.00000000E+00  0.00000000E+00  0.00000000E+00
  0.00000000E+00  0.00000000E+00  0.00000000E+00
  0.00000000E+00  0.00000000E+00  0.00000000E+00
  0.00000000E+00  0.00000000E+00  0.00000000E+00
  0.00000000E+00  0.00000000E+00  0.00000000E+00
  0.00000000E+00  0.00000000E+00  0.00000000E+00
  0.00000000E+00  0.00000000E+00  0.00000000E+00
  0.00000000E+00  0.00000000E+00  0.00000000E+00
  0.00000000E+00  0.00000000E+00  0.00000000E+00
  0.00000000E+00  0.00000000E+00  0.00000000E+00
  0.00000000E+00  0.00000000E+00  0.00000000E+00
  0.00000000E+00  0.00000000E+00  0.00000000E+00
  0.00000000E+00  0.00000000E+00  0.00000000E+00
  0.00000000E+00  0.00000000E+00  0.00000000E+00
  0.00000000E+00  0.00000000E+00  0.00000000E+00
  0.00000000E+00  0.00000000E+00  0.00000000E+00
  0.00000000E+00  0.00000000E+00  0.00000000E+00
  0.00000000E+00  0.00000000E+00  0.00000000E+00
  0.00000000E+00  0.00000000E+00  0.00000000E+00
  0.00000000E+00  0.00000000E+00  0.00000000E+00
  0.00000000E+00  0.00000000E+00  0.00000000E+00
  0.00000000E+00  0.00000000E+00  0.00000000E+00
  0.00000000E+00  0.00000000E+00  0.00000000E+00
  0.00000000E+00  0.00000000E+00  0.00000000E+00
  0.00000000E+00  0.00000000E+00  0.00000000E+00
  0.00000000E+00  0.00000000E+00  0.00000000E+00
  0.00000000E+00  0.00000000E+00  0.00000000E+00
  0.00000000E+00  0.00000000E+00  0.00000000E+00
  0.00000000E+00  0.00000000E+00  0.00000000E+00
  0.00000000E+00  0.00000000E+00  0.00000000E+00
  0.00000000E+00  0.00000000E+00  0.00000000E+00
  0.00000000E+00  0.00000000E+00  0.00000000E+00
  0.00000000E+00  0.00000000E+00  0.00000000E+00
  0.00000000E+00  0.00000000E+00  0.00000000E+00
  0.00000000E+00  0.00000000E+00  0.00000000E+00
  0.00000000E+00  0.00000000E+00  0.00000000E+00
  0.00000000E+00  0.00000000E+00  0.00000000E+00
  0.00000000E+00  0.00000000E+00  0.00000000E+00
  0.00000000E+00  0.00000000E+00  0.00000000E+00
  0.00000000E+00  0.00000000E+00  0.00000000E+00
  0.00000000E+00  0.00000000E+00  0.00000000E+00
  0.00000000E+00  0.00000000E+00  0.00000000E+00
  0.00000000E+00  0.00000000E+00  0.00000000E+00
  0.00000000E+00  0.00000000E+00  0.00000000E+00
  0.00000000E+00  0.00000000E+00  0.00000000E+00
  0.00000000E+00  0.00000000E+00  0.00000000E+00
  0.00000000E+00  0.00000000E+00  0.00000000E+00
  0.00000000E+00  0.00000000E+00  0.00000000E+00
  0.00000000E+00  0.00000000E+00  0.00000000E+00
  0.00000000E+00  0.00000000E+00  0.00000000E+00
  0.00000000E+00  0.00000000E+00  0.00000000E+00
  0.00000000E+00  0.00000000E+00  0.00000000E+00
  0.00000000E+00  0.00000000E+00  0.00000000E+00
  0.00000000E+00  0.00000000E+00  0.00000000E+00
  0.00000000E+00  0.00000000E+00  0.00000000E+00
  0.00000000E+00  0.00000000E+00  0.00000000E+00
  0.00000000E+00  0.00000000E+00  0.00000000E+00
