Cu(111) surface                         
   1.00000000000000     
    12.7550029755000001    0.0000000000000000    0.0000000000000000
    -6.3775029586000000   11.0461557529000007    0.0000000000000000
     0.0000000000000000    0.0000000000000000   22.8339500426999997
   Cu   C    N    Pt   Ir
   100    46     3     1     1
Selective dynamics
Direct
  0.0000000000000000  0.0000000000000000  0.0895158200000026   F   F   F
  0.0000000000000000  0.2000000029999995  0.0895158200000026   F   F   F
  0.0000000000000000  0.4000000059999991  0.0895158200000026   F   F   F
  0.0000000000000000  0.6000000240000034  0.0895158200000026   F   F   F
  0.0000000000000000  0.8000000119999982  0.0895158200000026   F   F   F
  0.2000000029999995  0.0000000000000000  0.0895158200000026   F   F   F
  0.2000000029999995  0.2000000029999995  0.0895158200000026   F   F   F
  0.2000000029999995  0.4000000059999991  0.0895158200000026   F   F   F
  0.2000000029999995  0.6000000240000034  0.0895158200000026   F   F   F
  0.2000000029999995  0.8000000119999982  0.0895158200000026   F   F   F
  0.4000000059999991  0.0000000000000000  0.0895158200000026   F   F   F
  0.4000000059999991  0.2000000029999995  0.0895158200000026   F   F   F
  0.4000000059999991  0.4000000059999991  0.0895158200000026   F   F   F
  0.4000000059999991  0.6000000240000034  0.0895158200000026   F   F   F
  0.4000000059999991  0.8000000119999982  0.0895158200000026   F   F   F
  0.6000000240000034  0.0000000000000000  0.0895158200000026   F   F   F
  0.6000000240000034  0.2000000029999995  0.0895158200000026   F   F   F
  0.6000000240000034  0.4000000059999991  0.0895158200000026   F   F   F
  0.6000000240000034  0.6000000240000034  0.0895158200000026   F   F   F
  0.6000000240000034  0.8000000119999982  0.0895158200000026   F   F   F
  0.8000000119999982  0.0000000000000000  0.0895158200000026   F   F   F
  0.8000000119999982  0.2000000029999995  0.0895158200000026   F   F   F
  0.8000000119999982  0.4000000059999991  0.0895158200000026   F   F   F
  0.8000000119999982  0.6000000240000034  0.0895158200000026   F   F   F
  0.8000000119999982  0.8000000119999982  0.0895158200000026   F   F   F
  0.0666666699999965  0.1333333400000001  0.1807345149999975   F   F   F
  0.0666666699999965  0.3333333429999996  0.1807345149999975   F   F   F
  0.0666666699999965  0.5333333609999968  0.1807345149999975   F   F   F
  0.0666666699999965  0.7333333489999987  0.1807345149999975   F   F   F
  0.0666666699999965  0.9333333370000005  0.1807345149999975   F   F   F
  0.2666666809999967  0.1333333400000001  0.1807345149999975   F   F   F
  0.2666666809999967  0.3333333429999996  0.1807345149999975   F   F   F
  0.2666666809999967  0.5333333609999968  0.1807345149999975   F   F   F
  0.2666666809999967  0.7333333489999987  0.1807345149999975   F   F   F
  0.2666666809999967  0.9333333370000005  0.1807345149999975   F   F   F
  0.4666666689999985  0.1333333400000001  0.1807345149999975   F   F   F
  0.4666666689999985  0.3333333429999996  0.1807345149999975   F   F   F
  0.4666666689999985  0.5333333609999968  0.1807345149999975   F   F   F
  0.4666666689999985  0.7333333489999987  0.1807345149999975   F   F   F
  0.4666666689999985  0.9333333370000005  0.1807345149999975   F   F   F
  0.6666666870000029  0.1333333400000001  0.1807345149999975   F   F   F
  0.6666666870000029  0.3333333429999996  0.1807345149999975   F   F   F
  0.6666666870000029  0.5333333609999968  0.1807345149999975   F   F   F
  0.6666666870000029  0.7333333489999987  0.1807345149999975   F   F   F
  0.6666666870000029  0.9333333370000005  0.1807345149999975   F   F   F
  0.8666666749999976  0.1333333400000001  0.1807345149999975   F   F   F
  0.8666666749999976  0.3333333429999996  0.1807345149999975   F   F   F
  0.8666666749999976  0.5333333609999968  0.1807345149999975   F   F   F
  0.8666666749999976  0.7333333489999987  0.1807345149999975   F   F   F
  0.8666666749999976  0.9333333370000005  0.1807345149999975   F   F   F
  0.1337898882777952  0.0669194593050962  0.2688604679753621   T   T   T
  0.1337013982518733  0.2666788829957863  0.2690448294975950   T   T   T
  0.1338139428690318  0.4664414297873294  0.2688522485264551   T   T   T
  0.1334682394099969  0.6665056417753716  0.2687435445328939   T   T   T
  0.1334839333441612  0.8665209811150022  0.2687221473966486   T   T   T
  0.3341093426036824  0.0678131294747629  0.2689760084255443   T   T   T
  0.3348038082291360  0.2683841783651804  0.2702833554570094   T   T   T
  0.3348190638510022  0.4659006139842623  0.2702811105574899   T   T   T
  0.3341407252091028  0.6658575405712277  0.2689919672597882   T   T   T
  0.3334946973844645  0.8665338508682777  0.2687440058244748   T   T   T
  0.5335369386945243  0.0669543607615349  0.2688598518929313   T   T   T
  0.5340654810439510  0.2684950441353537  0.2703348480864988   T   T   T
  0.5335116119584292  0.4664878196094281  0.2721481291402056   T   T   T
  0.5341000177655649  0.6651860687317769  0.2702774149760822   T   T   T
  0.5335562984349097  0.8661842077787500  0.2688529240117432   T   T   T
  0.7335283124737997  0.0665618308088332  0.2690318088315861   T   T   T
  0.7333245518292230  0.2666742118738402  0.2690759027529780   T   T   T
  0.7315102872626209  0.4659368180480264  0.2703330539030959   T   T   T
  0.7316254165015650  0.6652046491268609  0.2702774999418493   T   T   T
  0.7333208479778675  0.8662995838278950  0.2690468918211695   T   T   T
  0.9334198433686453  0.0665795085024504  0.2690406702340859   T   T   T
  0.9334364532712528  0.2664689154740161  0.2690313327573316   T   T   T
  0.9330458833554034  0.4664595457989911  0.2688607628344831   T   T   T
  0.9321915695856147  0.6658920608278388  0.2689745223757689   T   T   T
  0.9330821851288019  0.8662132435655403  0.2688611319852940   T   T   T
  0.0003286307901781  0.9996740971278303  0.3568688160844213   T   T   T
  0.0002039584661024  0.1997853948208013  0.3573072026084433   T   T   T
  0.0003900586512861  0.4000281864288027  0.3568503884854045   T   T   T
  0.0009259711579187  0.6000866395126657  0.3566169322777572   T   T   T
  0.0009010843885235  0.8001561631757255  0.3566053182052668   T   T   T
  0.1998381446224607  0.9990934971923804  0.3566083789340858   T   T   T
  0.1997075403762734  0.1992687842939438  0.3570016155768526   T   T   T
  0.1997857189283440  0.3997569003064240  0.3570146765052961   T   T   T
  0.1999184127793621  0.6000461403356830  0.3566228492218013   T   T   T
  0.2002371953451470  0.7997583182066117  0.3567461474595303   T   T   T
  0.3999064920782554  0.9990686708002146  0.3566185851528587   T   T   T
  0.3996597718234326  0.1986649340469851  0.3580519289462913   T   T   T
  0.4012492530806323  0.4001585650979289  0.3626650062773502   T   T   T
  0.3997958170041419  0.6002095962138205  0.3580229829590580   T   T   T
  0.3999458547727821  0.8000740566862818  0.3566224183524204   T   T   T
  0.5999612587292422  0.9996056888495324  0.3568481831385820   T   T   T
  0.6002070055623415  0.1992201790451467  0.3570291093161534   T   T   T
  0.5998169371140666  0.4002058332087410  0.3628575104117324   T   T   T
  0.5998606462620368  0.5987683557738241  0.3626426448292827   T   T   T
  0.6002401748806449  0.8002117724364217  0.3570190986196506   T   T   T
  0.8002161742592862  0.9997992887218264  0.3573065302719257   T   T   T
  0.8002518236075321  0.1997478631961184  0.3573020785038947   T   T   T
  0.8007761500321418  0.3997883101888411  0.3570299800452111   T   T   T
  0.8013349419882181  0.6003433472545553  0.3580481916392776   T   T   T
  0.8007293409129577  0.8002914134310426  0.3570050948767575   T   T   T
  0.1338080580483109  0.0645175007289627  0.4760875535517656   T   T   T
  0.1322119573482994  0.2642800247183747  0.4753188934309812   T   T   T
  0.1338085102311041  0.4656747964093095  0.4760814366605824   T   T   T
  0.1347128916630632  0.6657687571677192  0.4765426991790068   T   T   T
  0.1347150997894306  0.8653019958748895  0.4765486663598488   T   T   T
  0.3351279473165932  0.0666104014518874  0.4743676505962778   T   T   T
  0.3295687617726505  0.2643752441519853  0.4697614492746944   T   T   T
  0.3295591445568891  0.4615812752685893  0.4698427382040627   T   T   T
  0.3351505029694093  0.6648690911694584  0.4744518486658581   T   T   T
  0.3342237302696021  0.8652905519814420  0.4765429613161554   T   T   T
  0.5343417873949406  0.0644747934147507  0.4760045684577361   T   T   T
  0.5384229674991150  0.2643016778897210  0.4695972982433529   T   T   T
  0.5384183153844759  0.6704518175037534  0.4698487263588808   T   T   T
  0.5343307643039554  0.8662067024872602  0.4760640225972315   T   T   T
  0.7344606155182994  0.0653906306850840  0.4767134594420094   T   T   T
  0.7357400587812396  0.2642664779000242  0.4751618960688562   T   T   T
  0.7357019502652299  0.4615786078602056  0.4696030083092716   T   T   T
  0.7356394175810302  0.6704496765005631  0.4697738060130772   T   T   T
  0.7357344955783564  0.8678126068123658  0.4753042230931052   T   T   T
  0.9346119538154198  0.0653969532116845  0.4767518976833707   T   T   T
  0.9346205184815201  0.2655495439864781  0.4767182215289947   T   T   T
  0.9355394612302367  0.4656787839109666  0.4760131581383858   T   T   T
  0.9333811358698979  0.6648787278745959  0.4743785600494255   T   T   T
  0.9355025334923125  0.8661979607265377  0.4760804987379409   T   T   T
  0.0011414353142295  0.9988743812641849  0.4766653416018258   T   T   T
  0.0008346106080303  0.1985820351720635  0.4765478507308256   T   T   T
  0.0011510770410194  0.3986444122816013  0.4766311148640778   T   T   T
  0.0012015310828890  0.5989119095072850  0.4757036291198708   T   T   T
  0.0011838531903680  0.7986452001333139  0.4757379397703473   T   T   T
  0.2013605299196304  0.9988106407941796  0.4757338648049683   T   T   T
  0.1989859824973185  0.1971256704413283  0.4744746378329497   T   T   T
  0.1990187158235213  0.3982677784352267  0.4744877171842233   T   T   T
  0.2013485385205607  0.5989174385796112  0.4757573394095726   T   T   T
  0.2012143668285336  0.7987962226035932  0.4764322303749876   T   T   T
  0.4010720420432118  0.9987923704667167  0.4756976169980917   T   T   T
  0.4023127494766509  0.2010311234284913  0.4699622469827927   T   T   T
  0.4023206252690205  0.5976886488644721  0.4701423980238120   T   T   T
  0.4010781298235059  0.7986462922933540  0.4757534075099442   T   T   T
  0.6013582251634751  0.9988598686285013  0.4766219490864310   T   T   T
  0.6017615926036159  0.1971136593789793  0.4743272491906877   T   T   T
  0.6017316536194762  0.8009937134353785  0.4744674774143960   T   T   T
  0.8014118407621458  0.9991605299166888  0.4765409605456785   T   T   T
  0.8014172206496474  0.1985812007182842  0.4764779698780308   T   T   T
  0.8028744341711359  0.3982450018115901  0.4743289135127188   T   T   T
  0.7989674597728184  0.5976926198502176  0.4699857940856466   T   T   T
  0.8028743435101497  0.8010077846097582  0.4744544389062232   T   T   T
  0.3898136873548443  0.3931384057097312  0.4646847168402469   T   T   T
  0.6068944620241349  0.3930779249894758  0.4643320357182940   T   T   T
  0.6068536483224356  0.6101984718811960  0.4647508282825364   T   T   T
  0.5347894581493149  0.4652881536842314  0.5289041849658709   T   T   T
  0.5351514746681740  0.4648458241510753  0.6304945471498269   T   T   T
 
  0.00000000E+00  0.00000000E+00  0.00000000E+00
  0.00000000E+00  0.00000000E+00  0.00000000E+00
  0.00000000E+00  0.00000000E+00  0.00000000E+00
  0.00000000E+00  0.00000000E+00  0.00000000E+00
  0.00000000E+00  0.00000000E+00  0.00000000E+00
  0.00000000E+00  0.00000000E+00  0.00000000E+00
  0.00000000E+00  0.00000000E+00  0.00000000E+00
  0.00000000E+00  0.00000000E+00  0.00000000E+00
  0.00000000E+00  0.00000000E+00  0.00000000E+00
  0.00000000E+00  0.00000000E+00  0.00000000E+00
  0.00000000E+00  0.00000000E+00  0.00000000E+00
  0.00000000E+00  0.00000000E+00  0.00000000E+00
  0.00000000E+00  0.00000000E+00  0.00000000E+00
  0.00000000E+00  0.00000000E+00  0.00000000E+00
  0.00000000E+00  0.00000000E+00  0.00000000E+00
  0.00000000E+00  0.00000000E+00  0.00000000E+00
  0.00000000E+00  0.00000000E+00  0.00000000E+00
  0.00000000E+00  0.00000000E+00  0.00000000E+00
  0.00000000E+00  0.00000000E+00  0.00000000E+00
  0.00000000E+00  0.00000000E+00  0.00000000E+00
  0.00000000E+00  0.00000000E+00  0.00000000E+00
  0.00000000E+00  0.00000000E+00  0.00000000E+00
  0.00000000E+00  0.00000000E+00  0.00000000E+00
  0.00000000E+00  0.00000000E+00  0.00000000E+00
  0.00000000E+00  0.00000000E+00  0.00000000E+00
  0.00000000E+00  0.00000000E+00  0.00000000E+00
  0.00000000E+00  0.00000000E+00  0.00000000E+00
  0.00000000E+00  0.00000000E+00  0.00000000E+00
  0.00000000E+00  0.00000000E+00  0.00000000E+00
  0.00000000E+00  0.00000000E+00  0.00000000E+00
  0.00000000E+00  0.00000000E+00  0.00000000E+00
  0.00000000E+00  0.00000000E+00  0.00000000E+00
  0.00000000E+00  0.00000000E+00  0.00000000E+00
  0.00000000E+00  0.00000000E+00  0.00000000E+00
  0.00000000E+00  0.00000000E+00  0.00000000E+00
  0.00000000E+00  0.00000000E+00  0.00000000E+00
  0.00000000E+00  0.00000000E+00  0.00000000E+00
  0.00000000E+00  0.00000000E+00  0.00000000E+00
  0.00000000E+00  0.00000000E+00  0.00000000E+00
  0.00000000E+00  0.00000000E+00  0.00000000E+00
  0.00000000E+00  0.00000000E+00  0.00000000E+00
  0.00000000E+00  0.00000000E+00  0.00000000E+00
  0.00000000E+00  0.00000000E+00  0.00000000E+00
  0.00000000E+00  0.00000000E+00  0.00000000E+00
  0.00000000E+00  0.00000000E+00  0.00000000E+00
  0.00000000E+00  0.00000000E+00  0.00000000E+00
  0.00000000E+00  0.00000000E+00  0.00000000E+00
  0.00000000E+00  0.00000000E+00  0.00000000E+00
  0.00000000E+00  0.00000000E+00  0.00000000E+00
  0.00000000E+00  0.00000000E+00  0.00000000E+00
  0.00000000E+00  0.00000000E+00  0.00000000E+00
  0.00000000E+00  0.00000000E+00  0.00000000E+00
  0.00000000E+00  0.00000000E+00  0.00000000E+00
  0.00000000E+00  0.00000000E+00  0.00000000E+00
  0.00000000E+00  0.00000000E+00  0.00000000E+00
  0.00000000E+00  0.00000000E+00  0.00000000E+00
  0.00000000E+00  0.00000000E+00  0.00000000E+00
  0.00000000E+00  0.00000000E+00  0.00000000E+00
  0.00000000E+00  0.00000000E+00  0.00000000E+00
  0.00000000E+00  0.00000000E+00  0.00000000E+00
  0.00000000E+00  0.00000000E+00  0.00000000E+00
  0.00000000E+00  0.00000000E+00  0.00000000E+00
  0.00000000E+00  0.00000000E+00  0.00000000E+00
  0.00000000E+00  0.00000000E+00  0.00000000E+00
  0.00000000E+00  0.00000000E+00  0.00000000E+00
  0.00000000E+00  0.00000000E+00  0.00000000E+00
  0.00000000E+00  0.00000000E+00  0.00000000E+00
  0.00000000E+00  0.00000000E+00  0.00000000E+00
  0.00000000E+00  0.00000000E+00  0.00000000E+00
  0.00000000E+00  0.00000000E+00  0.00000000E+00
  0.00000000E+00  0.00000000E+00  0.00000000E+00
  0.00000000E+00  0.00000000E+00  0.00000000E+00
  0.00000000E+00  0.00000000E+00  0.00000000E+00
  0.00000000E+00  0.00000000E+00  0.00000000E+00
  0.00000000E+00  0.00000000E+00  0.00000000E+00
  0.00000000E+00  0.00000000E+00  0.00000000E+00
  0.00000000E+00  0.00000000E+00  0.00000000E+00
  0.00000000E+00  0.00000000E+00  0.00000000E+00
  0.00000000E+00  0.00000000E+00  0.00000000E+00
  0.00000000E+00  0.00000000E+00  0.00000000E+00
  0.00000000E+00  0.00000000E+00  0.00000000E+00
  0.00000000E+00  0.00000000E+00  0.00000000E+00
  0.00000000E+00  0.00000000E+00  0.00000000E+00
  0.00000000E+00  0.00000000E+00  0.00000000E+00
  0.00000000E+00  0.00000000E+00  0.00000000E+00
  0.00000000E+00  0.00000000E+00  0.00000000E+00
  0.00000000E+00  0.00000000E+00  0.00000000E+00
  0.00000000E+00  0.00000000E+00  0.00000000E+00
  0.00000000E+00  0.00000000E+00  0.00000000E+00
  0.00000000E+00  0.00000000E+00  0.00000000E+00
  0.00000000E+00  0.00000000E+00  0.00000000E+00
  0.00000000E+00  0.00000000E+00  0.00000000E+00
  0.00000000E+00  0.00000000E+00  0.00000000E+00
  0.00000000E+00  0.00000000E+00  0.00000000E+00
  0.00000000E+00  0.00000000E+00  0.00000000E+00
  0.00000000E+00  0.00000000E+00  0.00000000E+00
  0.00000000E+00  0.00000000E+00  0.00000000E+00
  0.00000000E+00  0.00000000E+00  0.00000000E+00
  0.00000000E+00  0.00000000E+00  0.00000000E+00
  0.00000000E+00  0.00000000E+00  0.00000000E+00
  0.00000000E+00  0.00000000E+00  0.00000000E+00
  0.00000000E+00  0.00000000E+00  0.00000000E+00
  0.00000000E+00  0.00000000E+00  0.00000000E+00
  0.00000000E+00  0.00000000E+00  0.00000000E+00
  0.00000000E+00  0.00000000E+00  0.00000000E+00
  0.00000000E+00  0.00000000E+00  0.00000000E+00
  0.00000000E+00  0.00000000E+00  0.00000000E+00
  0.00000000E+00  0.00000000E+00  0.00000000E+00
  0.00000000E+00  0.00000000E+00  0.00000000E+00
  0.00000000E+00  0.00000000E+00  0.00000000E+00
  0.00000000E+00  0.00000000E+00  0.00000000E+00
  0.00000000E+00  0.00000000E+00  0.00000000E+00
  0.00000000E+00  0.00000000E+00  0.00000000E+00
  0.00000000E+00  0.00000000E+00  0.00000000E+00
  0.00000000E+00  0.00000000E+00  0.00000000E+00
  0.00000000E+00  0.00000000E+00  0.00000000E+00
  0.00000000E+00  0.00000000E+00  0.00000000E+00
  0.00000000E+00  0.00000000E+00  0.00000000E+00
  0.00000000E+00  0.00000000E+00  0.00000000E+00
  0.00000000E+00  0.00000000E+00  0.00000000E+00
  0.00000000E+00  0.00000000E+00  0.00000000E+00
  0.00000000E+00  0.00000000E+00  0.00000000E+00
  0.00000000E+00  0.00000000E+00  0.00000000E+00
  0.00000000E+00  0.00000000E+00  0.00000000E+00
  0.00000000E+00  0.00000000E+00  0.00000000E+00
  0.00000000E+00  0.00000000E+00  0.00000000E+00
  0.00000000E+00  0.00000000E+00  0.00000000E+00
  0.00000000E+00  0.00000000E+00  0.00000000E+00
  0.00000000E+00  0.00000000E+00  0.00000000E+00
  0.00000000E+00  0.00000000E+00  0.00000000E+00
  0.00000000E+00  0.00000000E+00  0.00000000E+00
  0.00000000E+00  0.00000000E+00  0.00000000E+00
  0.00000000E+00  0.00000000E+00  0.00000000E+00
  0.00000000E+00  0.00000000E+00  0.00000000E+00
  0.00000000E+00  0.00000000E+00  0.00000000E+00
  0.00000000E+00  0.00000000E+00  0.00000000E+00
  0.00000000E+00  0.00000000E+00  0.00000000E+00
  0.00000000E+00  0.00000000E+00  0.00000000E+00
  0.00000000E+00  0.00000000E+00  0.00000000E+00
  0.00000000E+00  0.00000000E+00  0.00000000E+00
  0.00000000E+00  0.00000000E+00  0.00000000E+00
  0.00000000E+00  0.00000000E+00  0.00000000E+00
  0.00000000E+00  0.00000000E+00  0.00000000E+00
  0.00000000E+00  0.00000000E+00  0.00000000E+00
  0.00000000E+00  0.00000000E+00  0.00000000E+00
  0.00000000E+00  0.00000000E+00  0.00000000E+00
  0.00000000E+00  0.00000000E+00  0.00000000E+00
  0.00000000E+00  0.00000000E+00  0.00000000E+00
  0.00000000E+00  0.00000000E+00  0.00000000E+00
  0.00000000E+00  0.00000000E+00  0.00000000E+00
  0.00000000E+00  0.00000000E+00  0.00000000E+00
