Ni(111) surface                         
   1.00000000000000     
    12.3556299210000002    0.0000000000000000    0.0000000000000000
    -6.1778163852999999   10.7002885686999996    0.0000000000000000
     0.0000000000000000    0.0000000000000000   22.1189937591999986
   Ni   C    N    Pt   Ir
   100    46     3     1     1
Selective dynamics
Direct
  0.0000000000000000  0.0000000000000000  0.0895158200000026   F   F   F
  0.0000000000000000  0.2000000029999995  0.0895158200000026   F   F   F
  0.0000000000000000  0.4000000059999991  0.0895158200000026   F   F   F
  0.0000000000000000  0.6000000240000034  0.0895158200000026   F   F   F
  0.0000000000000000  0.8000000119999982  0.0895158200000026   F   F   F
  0.2000000029999995  0.0000000000000000  0.0895158200000026   F   F   F
  0.2000000029999995  0.2000000029999995  0.0895158200000026   F   F   F
  0.2000000029999995  0.4000000059999991  0.0895158200000026   F   F   F
  0.2000000029999995  0.6000000240000034  0.0895158200000026   F   F   F
  0.2000000029999995  0.8000000119999982  0.0895158200000026   F   F   F
  0.4000000059999991  0.0000000000000000  0.0895158200000026   F   F   F
  0.4000000059999991  0.2000000029999995  0.0895158200000026   F   F   F
  0.4000000059999991  0.4000000059999991  0.0895158200000026   F   F   F
  0.4000000059999991  0.6000000240000034  0.0895158200000026   F   F   F
  0.4000000059999991  0.8000000119999982  0.0895158200000026   F   F   F
  0.6000000240000034  0.0000000000000000  0.0895158200000026   F   F   F
  0.6000000240000034  0.2000000029999995  0.0895158200000026   F   F   F
  0.6000000240000034  0.4000000059999991  0.0895158200000026   F   F   F
  0.6000000240000034  0.6000000240000034  0.0895158200000026   F   F   F
  0.6000000240000034  0.8000000119999982  0.0895158200000026   F   F   F
  0.8000000119999982  0.0000000000000000  0.0895158200000026   F   F   F
  0.8000000119999982  0.2000000029999995  0.0895158200000026   F   F   F
  0.8000000119999982  0.4000000059999991  0.0895158200000026   F   F   F
  0.8000000119999982  0.6000000240000034  0.0895158200000026   F   F   F
  0.8000000119999982  0.8000000119999982  0.0895158200000026   F   F   F
  0.0666666699999965  0.1333333400000001  0.1807345149999975   F   F   F
  0.0666666699999965  0.3333333429999996  0.1807345149999975   F   F   F
  0.0666666699999965  0.5333333609999968  0.1807345149999975   F   F   F
  0.0666666699999965  0.7333333489999987  0.1807345149999975   F   F   F
  0.0666666699999965  0.9333333370000005  0.1807345149999975   F   F   F
  0.2666666809999967  0.1333333400000001  0.1807345149999975   F   F   F
  0.2666666809999967  0.3333333429999996  0.1807345149999975   F   F   F
  0.2666666809999967  0.5333333609999968  0.1807345149999975   F   F   F
  0.2666666809999967  0.7333333489999987  0.1807345149999975   F   F   F
  0.2666666809999967  0.9333333370000005  0.1807345149999975   F   F   F
  0.4666666689999985  0.1333333400000001  0.1807345149999975   F   F   F
  0.4666666689999985  0.3333333429999996  0.1807345149999975   F   F   F
  0.4666666689999985  0.5333333609999968  0.1807345149999975   F   F   F
  0.4666666689999985  0.7333333489999987  0.1807345149999975   F   F   F
  0.4666666689999985  0.9333333370000005  0.1807345149999975   F   F   F
  0.6666666870000029  0.1333333400000001  0.1807345149999975   F   F   F
  0.6666666870000029  0.3333333429999996  0.1807345149999975   F   F   F
  0.6666666870000029  0.5333333609999968  0.1807345149999975   F   F   F
  0.6666666870000029  0.7333333489999987  0.1807345149999975   F   F   F
  0.6666666870000029  0.9333333370000005  0.1807345149999975   F   F   F
  0.8666666749999976  0.1333333400000001  0.1807345149999975   F   F   F
  0.8666666749999976  0.3333333429999996  0.1807345149999975   F   F   F
  0.8666666749999976  0.5333333609999968  0.1807345149999975   F   F   F
  0.8666666749999976  0.7333333489999987  0.1807345149999975   F   F   F
  0.8666666749999976  0.9333333370000005  0.1807345149999975   F   F   F
  0.1346227106456238  0.0667714671987542  0.2710528679907981   T   T   T
  0.1345680374997940  0.2673914387704502  0.2705963679729915   T   T   T
  0.1346281240646564  0.4682356877402731  0.2709543277007908   T   T   T
  0.1336596003600740  0.6671348937175016  0.2714978808230274   T   T   T
  0.1336135779857291  0.8669066436306959  0.2714959783966352   T   T   T
  0.3333274635901515  0.0665335328018484  0.2719531705426996   T   T   T
  0.3343945170357145  0.2672710767358221  0.2717808917207003   T   T   T
  0.3343728047655382  0.4671935223580042  0.2717273231749035   T   T   T
  0.3333825166847583  0.6669621762283111  0.2718868129885316   T   T   T
  0.3335873245937764  0.8669351902917980  0.2714942184452216   T   T   T
  0.5323819707567625  0.0668006741128410  0.2710252523289606   T   T   T
  0.5330337366089444  0.2673344941779444  0.2717788949895347   T   T   T
  0.5333792216086930  0.4667336916844594  0.2722281006127484   T   T   T
  0.5330643020389975  0.6659000906414184  0.2717208512048429   T   T   T
  0.5324049323360581  0.8657421153114324  0.2709933121022035   T   T   T
  0.7329051130055440  0.0665842229630906  0.2696353494228758   T   T   T
  0.7329425306836032  0.2674262800377859  0.2705924158619600   T   T   T
  0.7328797315294707  0.4672205519811000  0.2716926586865663   T   T   T
  0.7329161468571060  0.6658688294695143  0.2716936643584699   T   T   T
  0.7329153792976323  0.8656615681205672  0.2706670773649819   T   T   T
  0.9338931611587103  0.0665773211388198  0.2696432799996730   T   T   T
  0.9339515732432581  0.2677978641954650  0.2696894110177376   T   T   T
  0.9337245921400685  0.4682680090097035  0.2709352530877625   T   T   T
  0.9337475967143277  0.6670001726863831  0.2718577379844427   T   T   T
  0.9336104871966556  0.8657766984343995  0.2709512009616476   T   T   T
  0.9984039666178325  0.1995321915187992  0.3588191895521254   T   T   T
  0.9987764310064284  0.3973602587390739  0.3591629298774368   T   T   T
  0.0004856664451030  0.5993229709647587  0.3632656486414647   T   T   T
  0.0003159455345032  0.8020947456068637  0.3632129486805674   T   T   T
  0.9984757729269506  0.0020999575736930  0.3591695152237808   T   T   T
  0.1974646252401646  0.1999866854696421  0.3609909995119702   T   T   T
  0.1974583490656598  0.3984079295337147  0.3608087878730670   T   T   T
  0.1990211268115253  0.5992772749167379  0.3632902773708011   T   T   T
  0.2007213279375403  0.8010071501513603  0.3613798001879331   T   T   T
  0.1988256689208072  0.0005753098728342  0.3633817872315130   T   T   T
  0.4001723122714338  0.1999911339844323  0.3633193086821940   T   T   T
  0.4007613838638316  0.4006623124066026  0.3635795969885922   T   T   T
  0.3999963835174593  0.6005585473807894  0.3631933691390428   T   T   T
  0.4020933493668391  0.8019252552722466  0.3632531869947619   T   T   T
  0.4022633573273930  0.0006231586625053  0.3634044339002083   T   T   T
  0.6027045465075650  0.2000626737788008  0.3609718632856509   T   T   T
  0.6002833725557195  0.4007469480360630  0.3635752837849545   T   T   T
  0.6000807801698842  0.5999618133664238  0.3635521935349769   T   T   T
  0.6023846369513889  0.8027518868658154  0.3610753261951697   T   T   T
  0.6038536698124576  0.0020217043413758  0.3591485013506125   T   T   T
  0.8012371551559774  0.1995333206199199  0.3588275876804113   T   T   T
  0.8012057279030823  0.3985905179741281  0.3607405644426806   T   T   T
  0.8007843993770637  0.6006435953971017  0.3631764693244325   T   T   T
  0.8008707177831687  0.8028211658249645  0.3608986448737446   T   T   T
  0.8012442625379201  0.0022558019804374  0.3587421616527613   T   T   T
  0.1345695937936853  0.0692482043240789  0.4732842352367652   T   T   T
  0.1342400745382394  0.2689000414129057  0.4800174455310727   T   T   T
  0.1345800625985023  0.4688608595266147  0.4732235692973357   T   T   T
  0.1348761528531950  0.6684287753008793  0.4586234902961163   T   T   T
  0.1348818764446996  0.8700437138665768  0.4585881263591481   T   T   T
  0.3365385769809236  0.0717320892068968  0.4586483713632081   T   T   T
  0.3313233480525375  0.2698525506883874  0.4603237516511762   T   T   T
  0.3313678999449468  0.4649980661790539  0.4602750677436470   T   T   T
  0.3365364579962873  0.6683971329906897  0.4585233095891452   T   T   T
  0.3365299535360173  0.8700758651497206  0.4585625020520688   T   T   T
  0.5360438131512925  0.0692843788327432  0.4733149755722290   T   T   T
  0.5398628002750673  0.2698776396401998  0.4603538586141197   T   T   T
  0.5398936060140619  0.6735091347332949  0.4600871096213912   T   T   T
  0.5360581891743879  0.8703215428208333  0.4731778087941191   T   T   T
  0.7350134518827274  0.0692860584269369  0.4884190585703949   T   T   T
  0.7360051621061658  0.2689207407993138  0.4800805710530332   T   T   T
  0.7349182420856610  0.4649927528701899  0.4603695918385494   T   T   T
  0.7349238340923864  0.6734659893331506  0.4601736764775794   T   T   T
  0.7360207295866090  0.8706610876294193  0.4798994187485688   T   T   T
  0.9356359618174076  0.0692763419731372  0.4884247251948483   T   T   T
  0.9356529710917335  0.2699391906876017  0.4884511866692975   T   T   T
  0.9355935574278096  0.4688823250028158  0.4733175885973328   T   T   T
  0.9331669395680210  0.6683717475408163  0.4586256508412564   T   T   T
  0.9355934538003020  0.8702778366995423  0.4732395884590326   T   T   T
  0.0020602786386827  0.0027517318901521  0.4802857021347104   T   T   T
  0.0021078726160373  0.2028397972532689  0.4882426599208841   T   T   T
  0.0020882739563377  0.4028686749283116  0.4802980853156995   T   T   T
  0.0006421231933729  0.6009342452382451  0.4616057436580115   T   T   T
  0.0006359924005429  0.8032598981931895  0.4615511798979883   T   T   T
  0.2015780684287977  0.0041863083777572  0.4616064109796842   T   T   T
  0.2000107262776057  0.2020808425599537  0.4723659501790342   T   T   T
  0.2000289569627408  0.4014451781852075  0.4723137490427351   T   T   T
  0.2015771284064922  0.6009280498793240  0.4615340215271905   T   T   T
  0.2020774354109270  0.8028140559942543  0.4559235111364731   T   T   T
  0.4039503313397405  0.0042127629041407  0.4616151084433585   T   T   T
  0.4039066616641506  0.2064936169073847  0.4579146477868060   T   T   T
  0.4039103474545143  0.6009177080182986  0.4577439147535430   T   T   T
  0.4039565340698719  0.8032924848643681  0.4615142793349804   T   T   T
  0.6020468464956084  0.0027817418804388  0.4802800546121903   T   T   T
  0.6033908190469859  0.2021143617562633  0.4724267767125868   T   T   T
  0.6034327502086133  0.8048245357943490  0.4721655032332248   T   T   T
  0.8020791003638666  0.0027932614404315  0.4881866037157439   T   T   T
  0.8020902654114951  0.2028404393415577  0.4882594750667466   T   T   T
  0.8027122411265472  0.4014793551802599  0.4724411896346395   T   T   T
  0.7982822817387353  0.6008832091820623  0.4578114445803793   T   T   T
  0.8027108839920568  0.8047679607488266  0.4722614082410722   T   T   T
  0.3947994703908558  0.3991173533846617  0.4573510264351460   T   T   T
  0.6055899843886379  0.3991324277967078  0.4573645217214097   T   T   T
  0.6055774303678102  0.6098604103216129  0.4571824027442652   T   T   T
  0.5351265635211826  0.4692678449181644  0.5293007777788880   T   T   T
  0.5348809770805756  0.4689211345601362  0.6340934718554834   T   T   T
 
  0.00000000E+00  0.00000000E+00  0.00000000E+00
  0.00000000E+00  0.00000000E+00  0.00000000E+00
  0.00000000E+00  0.00000000E+00  0.00000000E+00
  0.00000000E+00  0.00000000E+00  0.00000000E+00
  0.00000000E+00  0.00000000E+00  0.00000000E+00
  0.00000000E+00  0.00000000E+00  0.00000000E+00
  0.00000000E+00  0.00000000E+00  0.00000000E+00
  0.00000000E+00  0.00000000E+00  0.00000000E+00
  0.00000000E+00  0.00000000E+00  0.00000000E+00
  0.00000000E+00  0.00000000E+00  0.00000000E+00
  0.00000000E+00  0.00000000E+00  0.00000000E+00
  0.00000000E+00  0.00000000E+00  0.00000000E+00
  0.00000000E+00  0.00000000E+00  0.00000000E+00
  0.00000000E+00  0.00000000E+00  0.00000000E+00
  0.00000000E+00  0.00000000E+00  0.00000000E+00
  0.00000000E+00  0.00000000E+00  0.00000000E+00
  0.00000000E+00  0.00000000E+00  0.00000000E+00
  0.00000000E+00  0.00000000E+00  0.00000000E+00
  0.00000000E+00  0.00000000E+00  0.00000000E+00
  0.00000000E+00  0.00000000E+00  0.00000000E+00
  0.00000000E+00  0.00000000E+00  0.00000000E+00
  0.00000000E+00  0.00000000E+00  0.00000000E+00
  0.00000000E+00  0.00000000E+00  0.00000000E+00
  0.00000000E+00  0.00000000E+00  0.00000000E+00
  0.00000000E+00  0.00000000E+00  0.00000000E+00
  0.00000000E+00  0.00000000E+00  0.00000000E+00
  0.00000000E+00  0.00000000E+00  0.00000000E+00
  0.00000000E+00  0.00000000E+00  0.00000000E+00
  0.00000000E+00  0.00000000E+00  0.00000000E+00
  0.00000000E+00  0.00000000E+00  0.00000000E+00
  0.00000000E+00  0.00000000E+00  0.00000000E+00
  0.00000000E+00  0.00000000E+00  0.00000000E+00
  0.00000000E+00  0.00000000E+00  0.00000000E+00
  0.00000000E+00  0.00000000E+00  0.00000000E+00
  0.00000000E+00  0.00000000E+00  0.00000000E+00
  0.00000000E+00  0.00000000E+00  0.00000000E+00
  0.00000000E+00  0.00000000E+00  0.00000000E+00
  0.00000000E+00  0.00000000E+00  0.00000000E+00
  0.00000000E+00  0.00000000E+00  0.00000000E+00
  0.00000000E+00  0.00000000E+00  0.00000000E+00
  0.00000000E+00  0.00000000E+00  0.00000000E+00
  0.00000000E+00  0.00000000E+00  0.00000000E+00
  0.00000000E+00  0.00000000E+00  0.00000000E+00
  0.00000000E+00  0.00000000E+00  0.00000000E+00
  0.00000000E+00  0.00000000E+00  0.00000000E+00
  0.00000000E+00  0.00000000E+00  0.00000000E+00
  0.00000000E+00  0.00000000E+00  0.00000000E+00
  0.00000000E+00  0.00000000E+00  0.00000000E+00
  0.00000000E+00  0.00000000E+00  0.00000000E+00
  0.00000000E+00  0.00000000E+00  0.00000000E+00
  0.00000000E+00  0.00000000E+00  0.00000000E+00
  0.00000000E+00  0.00000000E+00  0.00000000E+00
  0.00000000E+00  0.00000000E+00  0.00000000E+00
  0.00000000E+00  0.00000000E+00  0.00000000E+00
  0.00000000E+00  0.00000000E+00  0.00000000E+00
  0.00000000E+00  0.00000000E+00  0.00000000E+00
  0.00000000E+00  0.00000000E+00  0.00000000E+00
  0.00000000E+00  0.00000000E+00  0.00000000E+00
  0.00000000E+00  0.00000000E+00  0.00000000E+00
  0.00000000E+00  0.00000000E+00  0.00000000E+00
  0.00000000E+00  0.00000000E+00  0.00000000E+00
  0.00000000E+00  0.00000000E+00  0.00000000E+00
  0.00000000E+00  0.00000000E+00  0.00000000E+00
  0.00000000E+00  0.00000000E+00  0.00000000E+00
  0.00000000E+00  0.00000000E+00  0.00000000E+00
  0.00000000E+00  0.00000000E+00  0.00000000E+00
  0.00000000E+00  0.00000000E+00  0.00000000E+00
  0.00000000E+00  0.00000000E+00  0.00000000E+00
  0.00000000E+00  0.00000000E+00  0.00000000E+00
  0.00000000E+00  0.00000000E+00  0.00000000E+00
  0.00000000E+00  0.00000000E+00  0.00000000E+00
  0.00000000E+00  0.00000000E+00  0.00000000E+00
  0.00000000E+00  0.00000000E+00  0.00000000E+00
  0.00000000E+00  0.00000000E+00  0.00000000E+00
  0.00000000E+00  0.00000000E+00  0.00000000E+00
  0.00000000E+00  0.00000000E+00  0.00000000E+00
  0.00000000E+00  0.00000000E+00  0.00000000E+00
  0.00000000E+00  0.00000000E+00  0.00000000E+00
  0.00000000E+00  0.00000000E+00  0.00000000E+00
  0.00000000E+00  0.00000000E+00  0.00000000E+00
  0.00000000E+00  0.00000000E+00  0.00000000E+00
  0.00000000E+00  0.00000000E+00  0.00000000E+00
  0.00000000E+00  0.00000000E+00  0.00000000E+00
  0.00000000E+00  0.00000000E+00  0.00000000E+00
  0.00000000E+00  0.00000000E+00  0.00000000E+00
  0.00000000E+00  0.00000000E+00  0.00000000E+00
  0.00000000E+00  0.00000000E+00  0.00000000E+00
  0.00000000E+00  0.00000000E+00  0.00000000E+00
  0.00000000E+00  0.00000000E+00  0.00000000E+00
  0.00000000E+00  0.00000000E+00  0.00000000E+00
  0.00000000E+00  0.00000000E+00  0.00000000E+00
  0.00000000E+00  0.00000000E+00  0.00000000E+00
  0.00000000E+00  0.00000000E+00  0.00000000E+00
  0.00000000E+00  0.00000000E+00  0.00000000E+00
  0.00000000E+00  0.00000000E+00  0.00000000E+00
  0.00000000E+00  0.00000000E+00  0.00000000E+00
  0.00000000E+00  0.00000000E+00  0.00000000E+00
  0.00000000E+00  0.00000000E+00  0.00000000E+00
  0.00000000E+00  0.00000000E+00  0.00000000E+00
  0.00000000E+00  0.00000000E+00  0.00000000E+00
  0.00000000E+00  0.00000000E+00  0.00000000E+00
  0.00000000E+00  0.00000000E+00  0.00000000E+00
  0.00000000E+00  0.00000000E+00  0.00000000E+00
  0.00000000E+00  0.00000000E+00  0.00000000E+00
  0.00000000E+00  0.00000000E+00  0.00000000E+00
  0.00000000E+00  0.00000000E+00  0.00000000E+00
  0.00000000E+00  0.00000000E+00  0.00000000E+00
  0.00000000E+00  0.00000000E+00  0.00000000E+00
  0.00000000E+00  0.00000000E+00  0.00000000E+00
  0.00000000E+00  0.00000000E+00  0.00000000E+00
  0.00000000E+00  0.00000000E+00  0.00000000E+00
  0.00000000E+00  0.00000000E+00  0.00000000E+00
  0.00000000E+00  0.00000000E+00  0.00000000E+00
  0.00000000E+00  0.00000000E+00  0.00000000E+00
  0.00000000E+00  0.00000000E+00  0.00000000E+00
  0.00000000E+00  0.00000000E+00  0.00000000E+00
  0.00000000E+00  0.00000000E+00  0.00000000E+00
  0.00000000E+00  0.00000000E+00  0.00000000E+00
  0.00000000E+00  0.00000000E+00  0.00000000E+00
  0.00000000E+00  0.00000000E+00  0.00000000E+00
  0.00000000E+00  0.00000000E+00  0.00000000E+00
  0.00000000E+00  0.00000000E+00  0.00000000E+00
  0.00000000E+00  0.00000000E+00  0.00000000E+00
  0.00000000E+00  0.00000000E+00  0.00000000E+00
  0.00000000E+00  0.00000000E+00  0.00000000E+00
  0.00000000E+00  0.00000000E+00  0.00000000E+00
  0.00000000E+00  0.00000000E+00  0.00000000E+00
  0.00000000E+00  0.00000000E+00  0.00000000E+00
  0.00000000E+00  0.00000000E+00  0.00000000E+00
  0.00000000E+00  0.00000000E+00  0.00000000E+00
  0.00000000E+00  0.00000000E+00  0.00000000E+00
  0.00000000E+00  0.00000000E+00  0.00000000E+00
  0.00000000E+00  0.00000000E+00  0.00000000E+00
  0.00000000E+00  0.00000000E+00  0.00000000E+00
  0.00000000E+00  0.00000000E+00  0.00000000E+00
  0.00000000E+00  0.00000000E+00  0.00000000E+00
  0.00000000E+00  0.00000000E+00  0.00000000E+00
  0.00000000E+00  0.00000000E+00  0.00000000E+00
  0.00000000E+00  0.00000000E+00  0.00000000E+00
  0.00000000E+00  0.00000000E+00  0.00000000E+00
  0.00000000E+00  0.00000000E+00  0.00000000E+00
  0.00000000E+00  0.00000000E+00  0.00000000E+00
  0.00000000E+00  0.00000000E+00  0.00000000E+00
  0.00000000E+00  0.00000000E+00  0.00000000E+00
  0.00000000E+00  0.00000000E+00  0.00000000E+00
  0.00000000E+00  0.00000000E+00  0.00000000E+00
  0.00000000E+00  0.00000000E+00  0.00000000E+00
  0.00000000E+00  0.00000000E+00  0.00000000E+00
  0.00000000E+00  0.00000000E+00  0.00000000E+00
  0.00000000E+00  0.00000000E+00  0.00000000E+00
  0.00000000E+00  0.00000000E+00  0.00000000E+00
