Ir(111) surface                         
   1.00000000000000     
    13.6036739348999998    0.0000000000000000    0.0000000000000000
    -6.8018385362000000   11.7811263066999992    0.0000000000000000
     0.0000000000000000    0.0000000000000000   24.3532371521000002
   Ir   C    N    Pt   Ir
   100    46     3     1     1
Selective dynamics
Direct
  0.0000000000000000  0.0000000000000000  0.0895158200000026   F   F   F
  0.0000000000000000  0.2000000029999995  0.0895158200000026   F   F   F
  0.0000000000000000  0.4000000059999991  0.0895158200000026   F   F   F
  0.0000000000000000  0.6000000240000034  0.0895158200000026   F   F   F
  0.0000000000000000  0.8000000119999982  0.0895158200000026   F   F   F
  0.2000000029999995  0.0000000000000000  0.0895158200000026   F   F   F
  0.2000000029999995  0.2000000029999995  0.0895158200000026   F   F   F
  0.2000000029999995  0.4000000059999991  0.0895158200000026   F   F   F
  0.2000000029999995  0.6000000240000034  0.0895158200000026   F   F   F
  0.2000000029999995  0.8000000119999982  0.0895158200000026   F   F   F
  0.4000000059999991  0.0000000000000000  0.0895158200000026   F   F   F
  0.4000000059999991  0.2000000029999995  0.0895158200000026   F   F   F
  0.4000000059999991  0.4000000059999991  0.0895158200000026   F   F   F
  0.4000000059999991  0.6000000240000034  0.0895158200000026   F   F   F
  0.4000000059999991  0.8000000119999982  0.0895158200000026   F   F   F
  0.6000000240000034  0.0000000000000000  0.0895158200000026   F   F   F
  0.6000000240000034  0.2000000029999995  0.0895158200000026   F   F   F
  0.6000000240000034  0.4000000059999991  0.0895158200000026   F   F   F
  0.6000000240000034  0.6000000240000034  0.0895158200000026   F   F   F
  0.6000000240000034  0.8000000119999982  0.0895158200000026   F   F   F
  0.8000000119999982  0.0000000000000000  0.0895158200000026   F   F   F
  0.8000000119999982  0.2000000029999995  0.0895158200000026   F   F   F
  0.8000000119999982  0.4000000059999991  0.0895158200000026   F   F   F
  0.8000000119999982  0.6000000240000034  0.0895158200000026   F   F   F
  0.8000000119999982  0.8000000119999982  0.0895158200000026   F   F   F
  0.0666666699999965  0.1333333400000001  0.1807345149999975   F   F   F
  0.0666666699999965  0.3333333429999996  0.1807345149999975   F   F   F
  0.0666666699999965  0.5333333609999968  0.1807345149999975   F   F   F
  0.0666666699999965  0.7333333489999987  0.1807345149999975   F   F   F
  0.0666666699999965  0.9333333370000005  0.1807345149999975   F   F   F
  0.2666666809999967  0.1333333400000001  0.1807345149999975   F   F   F
  0.2666666809999967  0.3333333429999996  0.1807345149999975   F   F   F
  0.2666666809999967  0.5333333609999968  0.1807345149999975   F   F   F
  0.2666666809999967  0.7333333489999987  0.1807345149999975   F   F   F
  0.2666666809999967  0.9333333370000005  0.1807345149999975   F   F   F
  0.4666666689999985  0.1333333400000001  0.1807345149999975   F   F   F
  0.4666666689999985  0.3333333429999996  0.1807345149999975   F   F   F
  0.4666666689999985  0.5333333609999968  0.1807345149999975   F   F   F
  0.4666666689999985  0.7333333489999987  0.1807345149999975   F   F   F
  0.4666666689999985  0.9333333370000005  0.1807345149999975   F   F   F
  0.6666666870000029  0.1333333400000001  0.1807345149999975   F   F   F
  0.6666666870000029  0.3333333429999996  0.1807345149999975   F   F   F
  0.6666666870000029  0.5333333609999968  0.1807345149999975   F   F   F
  0.6666666870000029  0.7333333489999987  0.1807345149999975   F   F   F
  0.6666666870000029  0.9333333370000005  0.1807345149999975   F   F   F
  0.8666666749999976  0.1333333400000001  0.1807345149999975   F   F   F
  0.8666666749999976  0.3333333429999996  0.1807345149999975   F   F   F
  0.8666666749999976  0.5333333609999968  0.1807345149999975   F   F   F
  0.8666666749999976  0.7333333489999987  0.1807345149999975   F   F   F
  0.8666666749999976  0.9333333370000005  0.1807345149999975   F   F   F
  0.1330027756689528  0.0669128735988387  0.2708517178645132   T   T   T
  0.1330535845307580  0.2666211115149664  0.2712494230175163   T   T   T
  0.1336354079670501  0.4668870127635894  0.2702203275798861   T   T   T
  0.1333895300120848  0.6667766360770130  0.2711822337100021   T   T   T
  0.1330337607838917  0.8668807595803883  0.2710090225049762   T   T   T
  0.3324717977654376  0.0662838991996642  0.2707024485935750   T   T   T
  0.3331891150112685  0.2662188764849304  0.2705456171112617   T   T   T
  0.3344052639493789  0.4662173244007811  0.2714412908880638   T   T   T
  0.3335966491015373  0.6661621293521778  0.2715868258978035   T   T   T
  0.3327993307089271  0.8664128279893100  0.2707502361380107   T   T   T
  0.5331229690964834  0.0668157694260452  0.2707148510028550   T   T   T
  0.5333071803290954  0.2668258749374942  0.2708877645674103   T   T   T
  0.5337177169545436  0.4668294290775105  0.2704644766905137   T   T   T
  0.5337287409180580  0.6670468048055882  0.2709036937851977   T   T   T
  0.5330156489615917  0.8666004105445391  0.2707876729802545   T   T   T
  0.7332843419504841  0.0669675594783012  0.2706392906062733   T   T   T
  0.7334761399290309  0.2671901252203175  0.2706815920315891   T   T   T
  0.7337453642554204  0.4672893009491298  0.2707243971051739   T   T   T
  0.7334863996544977  0.6670231786488787  0.2708140402329087   T   T   T
  0.7329982142005719  0.8667241543568216  0.2707445566279029   T   T   T
  0.9335803183180678  0.0673085263355789  0.2708294231764150   T   T   T
  0.9330970420854775  0.2668489887806077  0.2708483554358813   T   T   T
  0.9337851836627498  0.4671502420907492  0.2708232514712027   T   T   T
  0.9330850109698011  0.6668491233828091  0.2711351749088927   T   T   T
  0.9331170194426529  0.8670352689543921  0.2710502364822091   T   T   T
  0.0020116596260397  0.9988648323831555  0.3644966477045289   T   T   T
  0.0022417229205577  0.1987433042660242  0.3644101581528037   T   T   T
  0.0009697219031171  0.3982509082123313  0.3646485296412224   T   T   T
  0.0014367948066632  0.5981327057547129  0.3648028466910796   T   T   T
  0.0014528929369497  0.7982553855231084  0.3648224928182533   T   T   T
  0.2015426864399389 -0.0009108757765041  0.3647302302377163   T   T   T
  0.2035480361446325  0.2022511872263730  0.3667166731235699   T   T   T
  0.1996220467028148  0.4013278261633881  0.3609159098032469   T   T   T
  0.2017464007949887  0.5975905003725878  0.3665884549661225   T   T   T
  0.2015400361456945  0.7984167151707484  0.3647911846334611   T   T   T
  0.4008890790082075  0.9979906339348587  0.3641694971099289   T   T   T
  0.4010263425214342  0.1981035952337472  0.3644558116240881   T   T   T
  0.4012589265664990  0.3957838592496360  0.3614282338367200   T   T   T
  0.4002718311919055  0.5943778800592084  0.3653907045588021   T   T   T
  0.4013622198746801  0.7985706112911387  0.3640999706807368   T   T   T
  0.6012754142812828  0.9987021019383229  0.3642064132316484   T   T   T
  0.6014550792100570  0.1984607016157365  0.3637414572895362   T   T   T
  0.6004564906747308  0.3979044100081749  0.3646190614333825   T   T   T
  0.5997253378586392  0.5974067007027080  0.3660520959583991   T   T   T
  0.6016847342277529  0.7990546223436882  0.3636730764563607   T   T   T
  0.8014828755901958  0.9985814248918732  0.3642302355811383   T   T   T
  0.8011190091161722  0.1984380213610729  0.3640556383372387   T   T   T
  0.8009824936592894  0.3982955654681467  0.3642346102152086   T   T   T
  0.8006128404290660  0.5978572443251587  0.3648407678398840   T   T   T
  0.8016749790326878  0.7981731128313440  0.3645095508960186   T   T   T
  0.9679558313757350  0.0291334766677247  0.4484598164937118   T   T   T
  0.9664407680451168  0.2277918456881745  0.4485930206234267   T   T   T
  0.9688889418378562  0.4286713755637489  0.4484027930679750   T   T   T
  0.9692545362455774  0.6292951318043414  0.4486940276740656   T   T   T
  0.9691205085764115  0.8297128726424609  0.4485154203116359   T   T   T
  0.1696205446072200  0.0312395886551271  0.4487909836636380   T   T   T
  0.1628925091405397  0.2298668043195087  0.4542494554060737   T   T   T
  0.1664982165766673  0.4181718321658429  0.4465908484648741   T   T   T
  0.1704496433128658  0.6287737818327354  0.4491169973949306   T   T   T
  0.1696084300232024  0.8301588727762521  0.4487259225566753   T   T   T
  0.3697686610852939  0.0301120021297230  0.4484107700295076   T   T   T
  0.3738541820156838  0.2303224061979609  0.4481032277125495   T   T   T
  0.3770976628074228  0.6391544625449784  0.4476364889342082   T   T   T
  0.3702660102343311  0.8324437182016300  0.4484789040937819   T   T   T
  0.5699412355118165  0.0309025422469179  0.4480959183638828   T   T   T
  0.5702810500860059  0.2288914460614718  0.4482986217801191   T   T   T
  0.5669260018240694  0.4239270974233370  0.4479023115501278   T   T   T
  0.5703858103078726  0.6382948190380350  0.4473639756535039   T   T   T
  0.5715346862922325  0.8342127884710586  0.4483333682899106   T   T   T
  0.7694444543646916  0.0305705755040141  0.4481522905466714   T   T   T
  0.7691729357476813  0.2297246420309688  0.4482591319703378   T   T   T
  0.7693131765699954  0.4291328408051591  0.4485785493855313   T   T   T
  0.7673407023574116  0.6288204631349941  0.4485928323509178   T   T   T
  0.7701955299332760  0.8318310764167206  0.4483903667868898   T   T   T
  0.0305155771491099  0.1623021489705921  0.4489831967226997   T   T   T
  0.0320561264347326  0.3618346905181528  0.4477195073554368   T   T   T
  0.0344178715639539  0.5641422553570017  0.4486599059110388   T   T   T
  0.0342935341382715  0.7647851979901512  0.4484527020740026   T   T   T
  0.0340392655453792  0.9651318323213204  0.4483922135918370   T   T   T
  0.2336476884133387  0.1675723348365908  0.4488522546004286   T   T   T
  0.2366409744548061  0.5628881201264356  0.4488093531338379   T   T   T
  0.2350789303540469  0.7655062567514840  0.4486598726330333   T   T   T
  0.2344534087624654  0.9657464125118537  0.4484445496407486   T   T   T
  0.4357149754830564  0.1639418750136361  0.4483164770528766   T   T   T
  0.4371713756037502  0.7707793050901027  0.4481885497717812   T   T   T
  0.4346598699308766  0.9659546265931693  0.4482620882186023   T   T   T
  0.6348375241652280  0.1649083271426627  0.4481864850402216   T   T   T
  0.6348439246116935  0.3630876388833360  0.4483719221363578   T   T   T
  0.6299937350363972  0.5638677494520333  0.4479976519625859   T   T   T
  0.6371193113942371  0.7702082669562963  0.4482270219435128   T   T   T
  0.6353912391479587  0.9668096625676500  0.4480669233932642   T   T   T
  0.8334495566962270  0.1643653135103820  0.4481467159649986   T   T   T
  0.8341996093837624  0.3644299040828084  0.4483269931740096   T   T   T
  0.8333118381159775  0.5641946926560798  0.4484655569992074   T   T   T
  0.8335423100316196  0.7649089094682923  0.4482570463439821   T   T   T
  0.8344465031312719  0.9652862054282033  0.4481406765567540   T   T   T
  0.2114360486990385  0.3462344143799599  0.4700380442186465   T   T   T
  0.4378767970044061  0.3577418509872077  0.4514912399534143   T   T   T
  0.4428961489269036  0.5841006607067194  0.4511919894517493   T   T   T
  0.3662536904903911  0.4197816717491334  0.5103181491462108   T   T   T
  0.4235420901091020  0.4602787184892138  0.6002473337778005   T   T   T
 
  0.00000000E+00  0.00000000E+00  0.00000000E+00
  0.00000000E+00  0.00000000E+00  0.00000000E+00
  0.00000000E+00  0.00000000E+00  0.00000000E+00
  0.00000000E+00  0.00000000E+00  0.00000000E+00
  0.00000000E+00  0.00000000E+00  0.00000000E+00
  0.00000000E+00  0.00000000E+00  0.00000000E+00
  0.00000000E+00  0.00000000E+00  0.00000000E+00
  0.00000000E+00  0.00000000E+00  0.00000000E+00
  0.00000000E+00  0.00000000E+00  0.00000000E+00
  0.00000000E+00  0.00000000E+00  0.00000000E+00
  0.00000000E+00  0.00000000E+00  0.00000000E+00
  0.00000000E+00  0.00000000E+00  0.00000000E+00
  0.00000000E+00  0.00000000E+00  0.00000000E+00
  0.00000000E+00  0.00000000E+00  0.00000000E+00
  0.00000000E+00  0.00000000E+00  0.00000000E+00
  0.00000000E+00  0.00000000E+00  0.00000000E+00
  0.00000000E+00  0.00000000E+00  0.00000000E+00
  0.00000000E+00  0.00000000E+00  0.00000000E+00
  0.00000000E+00  0.00000000E+00  0.00000000E+00
  0.00000000E+00  0.00000000E+00  0.00000000E+00
  0.00000000E+00  0.00000000E+00  0.00000000E+00
  0.00000000E+00  0.00000000E+00  0.00000000E+00
  0.00000000E+00  0.00000000E+00  0.00000000E+00
  0.00000000E+00  0.00000000E+00  0.00000000E+00
  0.00000000E+00  0.00000000E+00  0.00000000E+00
  0.00000000E+00  0.00000000E+00  0.00000000E+00
  0.00000000E+00  0.00000000E+00  0.00000000E+00
  0.00000000E+00  0.00000000E+00  0.00000000E+00
  0.00000000E+00  0.00000000E+00  0.00000000E+00
  0.00000000E+00  0.00000000E+00  0.00000000E+00
  0.00000000E+00  0.00000000E+00  0.00000000E+00
  0.00000000E+00  0.00000000E+00  0.00000000E+00
  0.00000000E+00  0.00000000E+00  0.00000000E+00
  0.00000000E+00  0.00000000E+00  0.00000000E+00
  0.00000000E+00  0.00000000E+00  0.00000000E+00
  0.00000000E+00  0.00000000E+00  0.00000000E+00
  0.00000000E+00  0.00000000E+00  0.00000000E+00
  0.00000000E+00  0.00000000E+00  0.00000000E+00
  0.00000000E+00  0.00000000E+00  0.00000000E+00
  0.00000000E+00  0.00000000E+00  0.00000000E+00
  0.00000000E+00  0.00000000E+00  0.00000000E+00
  0.00000000E+00  0.00000000E+00  0.00000000E+00
  0.00000000E+00  0.00000000E+00  0.00000000E+00
  0.00000000E+00  0.00000000E+00  0.00000000E+00
  0.00000000E+00  0.00000000E+00  0.00000000E+00
  0.00000000E+00  0.00000000E+00  0.00000000E+00
  0.00000000E+00  0.00000000E+00  0.00000000E+00
  0.00000000E+00  0.00000000E+00  0.00000000E+00
  0.00000000E+00  0.00000000E+00  0.00000000E+00
  0.00000000E+00  0.00000000E+00  0.00000000E+00
  0.00000000E+00  0.00000000E+00  0.00000000E+00
  0.00000000E+00  0.00000000E+00  0.00000000E+00
  0.00000000E+00  0.00000000E+00  0.00000000E+00
  0.00000000E+00  0.00000000E+00  0.00000000E+00
  0.00000000E+00  0.00000000E+00  0.00000000E+00
  0.00000000E+00  0.00000000E+00  0.00000000E+00
  0.00000000E+00  0.00000000E+00  0.00000000E+00
  0.00000000E+00  0.00000000E+00  0.00000000E+00
  0.00000000E+00  0.00000000E+00  0.00000000E+00
  0.00000000E+00  0.00000000E+00  0.00000000E+00
  0.00000000E+00  0.00000000E+00  0.00000000E+00
  0.00000000E+00  0.00000000E+00  0.00000000E+00
  0.00000000E+00  0.00000000E+00  0.00000000E+00
  0.00000000E+00  0.00000000E+00  0.00000000E+00
  0.00000000E+00  0.00000000E+00  0.00000000E+00
  0.00000000E+00  0.00000000E+00  0.00000000E+00
  0.00000000E+00  0.00000000E+00  0.00000000E+00
  0.00000000E+00  0.00000000E+00  0.00000000E+00
  0.00000000E+00  0.00000000E+00  0.00000000E+00
  0.00000000E+00  0.00000000E+00  0.00000000E+00
  0.00000000E+00  0.00000000E+00  0.00000000E+00
  0.00000000E+00  0.00000000E+00  0.00000000E+00
  0.00000000E+00  0.00000000E+00  0.00000000E+00
  0.00000000E+00  0.00000000E+00  0.00000000E+00
  0.00000000E+00  0.00000000E+00  0.00000000E+00
  0.00000000E+00  0.00000000E+00  0.00000000E+00
  0.00000000E+00  0.00000000E+00  0.00000000E+00
  0.00000000E+00  0.00000000E+00  0.00000000E+00
  0.00000000E+00  0.00000000E+00  0.00000000E+00
  0.00000000E+00  0.00000000E+00  0.00000000E+00
  0.00000000E+00  0.00000000E+00  0.00000000E+00
  0.00000000E+00  0.00000000E+00  0.00000000E+00
  0.00000000E+00  0.00000000E+00  0.00000000E+00
  0.00000000E+00  0.00000000E+00  0.00000000E+00
  0.00000000E+00  0.00000000E+00  0.00000000E+00
  0.00000000E+00  0.00000000E+00  0.00000000E+00
  0.00000000E+00  0.00000000E+00  0.00000000E+00
  0.00000000E+00  0.00000000E+00  0.00000000E+00
  0.00000000E+00  0.00000000E+00  0.00000000E+00
  0.00000000E+00  0.00000000E+00  0.00000000E+00
  0.00000000E+00  0.00000000E+00  0.00000000E+00
  0.00000000E+00  0.00000000E+00  0.00000000E+00
  0.00000000E+00  0.00000000E+00  0.00000000E+00
  0.00000000E+00  0.00000000E+00  0.00000000E+00
  0.00000000E+00  0.00000000E+00  0.00000000E+00
  0.00000000E+00  0.00000000E+00  0.00000000E+00
  0.00000000E+00  0.00000000E+00  0.00000000E+00
  0.00000000E+00  0.00000000E+00  0.00000000E+00
  0.00000000E+00  0.00000000E+00  0.00000000E+00
  0.00000000E+00  0.00000000E+00  0.00000000E+00
  0.00000000E+00  0.00000000E+00  0.00000000E+00
  0.00000000E+00  0.00000000E+00  0.00000000E+00
  0.00000000E+00  0.00000000E+00  0.00000000E+00
  0.00000000E+00  0.00000000E+00  0.00000000E+00
  0.00000000E+00  0.00000000E+00  0.00000000E+00
  0.00000000E+00  0.00000000E+00  0.00000000E+00
  0.00000000E+00  0.00000000E+00  0.00000000E+00
  0.00000000E+00  0.00000000E+00  0.00000000E+00
  0.00000000E+00  0.00000000E+00  0.00000000E+00
  0.00000000E+00  0.00000000E+00  0.00000000E+00
  0.00000000E+00  0.00000000E+00  0.00000000E+00
  0.00000000E+00  0.00000000E+00  0.00000000E+00
  0.00000000E+00  0.00000000E+00  0.00000000E+00
  0.00000000E+00  0.00000000E+00  0.00000000E+00
  0.00000000E+00  0.00000000E+00  0.00000000E+00
  0.00000000E+00  0.00000000E+00  0.00000000E+00
  0.00000000E+00  0.00000000E+00  0.00000000E+00
  0.00000000E+00  0.00000000E+00  0.00000000E+00
  0.00000000E+00  0.00000000E+00  0.00000000E+00
  0.00000000E+00  0.00000000E+00  0.00000000E+00
  0.00000000E+00  0.00000000E+00  0.00000000E+00
  0.00000000E+00  0.00000000E+00  0.00000000E+00
  0.00000000E+00  0.00000000E+00  0.00000000E+00
  0.00000000E+00  0.00000000E+00  0.00000000E+00
  0.00000000E+00  0.00000000E+00  0.00000000E+00
  0.00000000E+00  0.00000000E+00  0.00000000E+00
  0.00000000E+00  0.00000000E+00  0.00000000E+00
  0.00000000E+00  0.00000000E+00  0.00000000E+00
  0.00000000E+00  0.00000000E+00  0.00000000E+00
  0.00000000E+00  0.00000000E+00  0.00000000E+00
  0.00000000E+00  0.00000000E+00  0.00000000E+00
  0.00000000E+00  0.00000000E+00  0.00000000E+00
  0.00000000E+00  0.00000000E+00  0.00000000E+00
  0.00000000E+00  0.00000000E+00  0.00000000E+00
  0.00000000E+00  0.00000000E+00  0.00000000E+00
  0.00000000E+00  0.00000000E+00  0.00000000E+00
  0.00000000E+00  0.00000000E+00  0.00000000E+00
  0.00000000E+00  0.00000000E+00  0.00000000E+00
  0.00000000E+00  0.00000000E+00  0.00000000E+00
  0.00000000E+00  0.00000000E+00  0.00000000E+00
  0.00000000E+00  0.00000000E+00  0.00000000E+00
  0.00000000E+00  0.00000000E+00  0.00000000E+00
  0.00000000E+00  0.00000000E+00  0.00000000E+00
  0.00000000E+00  0.00000000E+00  0.00000000E+00
  0.00000000E+00  0.00000000E+00  0.00000000E+00
  0.00000000E+00  0.00000000E+00  0.00000000E+00
  0.00000000E+00  0.00000000E+00  0.00000000E+00
  0.00000000E+00  0.00000000E+00  0.00000000E+00
  0.00000000E+00  0.00000000E+00  0.00000000E+00
  0.00000000E+00  0.00000000E+00  0.00000000E+00
  0.00000000E+00  0.00000000E+00  0.00000000E+00
