Ir(111) surface                         
   1.00000000000000     
    13.6036739348999998    0.0000000000000000    0.0000000000000000
    -6.8018385362000000   11.7811263066999992    0.0000000000000000
     0.0000000000000000    0.0000000000000000   14.6119422912600001
   C    N    Pd   Ir
    46     3     1     1
Selective dynamics
Direct
  0.9676902425623268  0.0297243771844293  0.0806687631121150   F   F   F
  0.9650727335627707  0.2281120042181755  0.0805253023742338   F   F   F
  0.9669802451476954  0.4294626110901021  0.0804808872702978   F   F   F
  0.9689092713382053  0.6301564050510109  0.0810076724346089   F   F   F
  0.9694221006206902  0.8305799889312198  0.0808212130492763   F   F   F
  0.1709939568906904  0.0330433631062235  0.0809860526220518   F   F   F
  0.1613017859617827  0.2307080279298930  0.0795052993676038   F   F   F
  0.1598276502893441  0.4210761547627442  0.0807125679623368   F   F   F
  0.1699126791262771  0.6300881065891417  0.0815047391385804   F   F   F
  0.1698438846564727  0.8310916831426383  0.0810076902762447   F   F   F
  0.3704148355051871  0.0310355407238845  0.0805640554421032   F   F   F
  0.3786878868986321  0.2348219936056140  0.0816140971634383   F   F   F
  0.3789231038393552  0.6401727341804317  0.0807130237395981   F   F   F
  0.3705383444176178  0.8330205293959878  0.0804808765262877   F   F   F
  0.5700809379117615  0.0312127248962071  0.0799297448199709   F   F   F
  0.5707863532770006  0.2292149653272517  0.0797906198286995   F   F   F
  0.5651787700296182  0.4213131975434337  0.0816144637407703   F   F   F
  0.5692916417628737  0.6386996522626021  0.0795061832888422   F   F   F
  0.5718882597466006  0.8349273215528825  0.0805252597258459   F   F   F
  0.7692299859722098  0.0307716959493760  0.0800926471592334   F   F   F
  0.7687876801944142  0.2299200292917121  0.0799295271909344   F   F   F
  0.7689646758646518  0.4295858353302791  0.0805638632585186   F   F   F
  0.7669569744062485  0.6290060498405765  0.0809863316628636   F   F   F
  0.7702764811944860  0.8323105898897936  0.0806690357125532   F   F   F
  0.0292387066449322  0.1625684757824359  0.0804174573338727   F   F   F
  0.0284730188687448  0.3623835169590137  0.0804326475540051   F   F   F
  0.0337343055073589  0.5650241542603780  0.0807816388023497   F   F   F
  0.0343593653002827  0.7656427335266898  0.0807185751402741   F   F   F
  0.0345767796895231  0.9663852952462690  0.0804172073418385   F   F   F
  0.2365756785516098  0.1706144397793778  0.0802315899867594   F   F   F
  0.2351864985854064  0.5648146477964389  0.0810518572461376   F   F   F
  0.2349766914111910  0.7662665935241861  0.0807813844178895   F   F   F
  0.2352274192435715  0.9668759697467095  0.0807126969119736   F   F   F
  0.4368120188880127  0.1648314002405584  0.0799726352702379   F   F   F
  0.4376159482374149  0.7715291092393883  0.0804330962768063   F   F   F
  0.4349984834169049  0.9665395239156211  0.0802221204731239   F   F   F
  0.6349058998851618  0.1650951607144364  0.0797015042974607   F   F   F
  0.6351689222304842  0.3631887160927079  0.0799722334004684   F   F   F
  0.6293853696767258  0.5634249020777418  0.0802317854877970   F   F   F
  0.6374322772767229  0.7707627595512960  0.0804175557531295   F   F   F
  0.6355244533489142  0.9671711844888478  0.0800266695531420   F   F   F
  0.8328296208455939  0.1644757439886320  0.0800265882058184   F   F   F
  0.8334617409053990  0.3650022911839699  0.0802216951830630   F   F   F
  0.8331255071984742  0.5647745608115571  0.0807130347361067   F   F   F
  0.8336151624179280  0.7654243035122974  0.0804174114927036   F   F   F
  0.8343736087123403  0.9656273027212947  0.0802694433539557   F   F   F
  0.2137002947413364  0.3560181334632659  0.0846091293492393   F   F   F
  0.4428301238243648  0.3571697648564296  0.0853583774694471   F   F   F
  0.4439801356212882  0.5863015543774921  0.0846089333829383   F   F   F
  0.1969915896504588  0.5906187923774979  0.2225605717303938   F   F   T
  0.1969915896504588  0.5906187923774979  0.3847546224768138   F   F   T
 
  0.00000000E+00  0.00000000E+00  0.00000000E+00
  0.00000000E+00  0.00000000E+00  0.00000000E+00
  0.00000000E+00  0.00000000E+00  0.00000000E+00
  0.00000000E+00  0.00000000E+00  0.00000000E+00
  0.00000000E+00  0.00000000E+00  0.00000000E+00
  0.00000000E+00  0.00000000E+00  0.00000000E+00
  0.00000000E+00  0.00000000E+00  0.00000000E+00
  0.00000000E+00  0.00000000E+00  0.00000000E+00
  0.00000000E+00  0.00000000E+00  0.00000000E+00
  0.00000000E+00  0.00000000E+00  0.00000000E+00
  0.00000000E+00  0.00000000E+00  0.00000000E+00
  0.00000000E+00  0.00000000E+00  0.00000000E+00
  0.00000000E+00  0.00000000E+00  0.00000000E+00
  0.00000000E+00  0.00000000E+00  0.00000000E+00
  0.00000000E+00  0.00000000E+00  0.00000000E+00
  0.00000000E+00  0.00000000E+00  0.00000000E+00
  0.00000000E+00  0.00000000E+00  0.00000000E+00
  0.00000000E+00  0.00000000E+00  0.00000000E+00
  0.00000000E+00  0.00000000E+00  0.00000000E+00
  0.00000000E+00  0.00000000E+00  0.00000000E+00
  0.00000000E+00  0.00000000E+00  0.00000000E+00
  0.00000000E+00  0.00000000E+00  0.00000000E+00
  0.00000000E+00  0.00000000E+00  0.00000000E+00
  0.00000000E+00  0.00000000E+00  0.00000000E+00
  0.00000000E+00  0.00000000E+00  0.00000000E+00
  0.00000000E+00  0.00000000E+00  0.00000000E+00
  0.00000000E+00  0.00000000E+00  0.00000000E+00
  0.00000000E+00  0.00000000E+00  0.00000000E+00
  0.00000000E+00  0.00000000E+00  0.00000000E+00
  0.00000000E+00  0.00000000E+00  0.00000000E+00
  0.00000000E+00  0.00000000E+00  0.00000000E+00
  0.00000000E+00  0.00000000E+00  0.00000000E+00
  0.00000000E+00  0.00000000E+00  0.00000000E+00
  0.00000000E+00  0.00000000E+00  0.00000000E+00
  0.00000000E+00  0.00000000E+00  0.00000000E+00
  0.00000000E+00  0.00000000E+00  0.00000000E+00
  0.00000000E+00  0.00000000E+00  0.00000000E+00
  0.00000000E+00  0.00000000E+00  0.00000000E+00
  0.00000000E+00  0.00000000E+00  0.00000000E+00
  0.00000000E+00  0.00000000E+00  0.00000000E+00
  0.00000000E+00  0.00000000E+00  0.00000000E+00
  0.00000000E+00  0.00000000E+00  0.00000000E+00
  0.00000000E+00  0.00000000E+00  0.00000000E+00
  0.00000000E+00  0.00000000E+00  0.00000000E+00
  0.00000000E+00  0.00000000E+00  0.00000000E+00
  0.00000000E+00  0.00000000E+00  0.00000000E+00
  0.00000000E+00  0.00000000E+00  0.00000000E+00
  0.00000000E+00  0.00000000E+00  0.00000000E+00
  0.00000000E+00  0.00000000E+00  0.00000000E+00
  0.00000000E+00  0.00000000E+00  0.00000000E+00
  0.00000000E+00  0.00000000E+00  0.00000000E+00
