C                                       
   1.00000000000000     
    12.3354034424000005    0.0000000000000000    0.0000000000000000
     6.1677024323999996   10.6827723363999993    0.0000000000000000
     0.0000000000000000    0.0000000000000000   14.0000000000000000
   C    N    Pd   Ir
    46     3     1     1
Selective dynamics
Direct
  0.0665394890000002  0.0665206239999989  0.5043219329999999   F   F   F
  0.0664500820000029  0.2665043470000015  0.5036302800000030   F   F   F
  0.0662230849999972  0.4665642679999991  0.5024158359999973   F   F   F
  0.0697108279999981  0.6650687460000029  0.5012241599999996   F   F   F
  0.0664078000000003  0.8666833039999986  0.5035195950000002   F   F   F
  0.2665343879999966  0.0664250179999968  0.5036554340000023   F   F   F
  0.2658378779999993  0.2658009829999983  0.5032600759999966   F   F   F
  0.2692585890000032  0.4617208239999968  0.5010607239999985   F   F   F
  0.2686405780000030  0.6682658790000033  0.4931454359999989   F   F   F
  0.2661854329999969  0.8675429820000033  0.5010037420000018   F   F   F
  0.4666039049999995  0.0661886039999970  0.5023195739999977   F   F   F
  0.4617612660000034  0.2692182059999979  0.5008813740000022   F   F   F
  0.4630529579999987  0.6690232159999994  0.4885369839999996   F   F   F
  0.4669217470000007  0.8667633530000032  0.5010050539999966   F   F   F
  0.6651102300000034  0.0696785299999974  0.5009800790000014   F   F   F
  0.6682832839999975  0.2686173319999980  0.4926687479999998   F   F   F
  0.6690380570000016  0.4630350770000007  0.4882505539999968   F   F   F
  0.6655446890000007  0.6655125019999986  0.4958440360000012   F   F   F
  0.6667286160000003  0.8667801019999999  0.5011573430000027   F   F   F
  0.8666968940000004  0.0663923469999972  0.5033745169999975   F   F   F
  0.8675584790000030  0.2661596539999991  0.5007881519999984   F   F   F
  0.8667831420000027  0.4668872359999980  0.5009536740000016   F   F   F
  0.8668151500000008  0.6666870709999984  0.5011895299999978   F   F   F
  0.8667016030000028  0.8666611909999986  0.5019922850000000   F   F   F
  0.9999074340000007  0.9998947979999997  0.5046020750000011   F   F   F
  0.0003329059999970  0.1996163129999999  0.5034853220000031   F   F   F
  0.9998258950000007  0.3999217450000003  0.5028141740000009   F   F   F
  0.0007448380000028  0.5997502210000007  0.5020318030000013   F   F   F
  0.0006982399999984  0.7993461490000016  0.5021519659999996   F   F   F
  0.1996393350000005  0.0003162550000013  0.5035706159999975   F   F   F
  0.1994714739999992  0.1994413580000014  0.5040266509999967   F   F   F
  0.1991751790000009  0.3988489210000026  0.5022416710000002   F   F   F
  0.2041299489999986  0.5976123209999997  0.4985727669999989   F   F   F
  0.1995241489999984  0.8011163469999971  0.5005341769999987   F   F   F
  0.3999553319999976  0.9998017550000000  0.5028114910000028   F   F   F
  0.3988861440000022  0.1991378219999973  0.5021525619999991   F   F   F
  0.3993544880000002  0.8013957739999995  0.4987508359999993   F   F   F
  0.5997918249999969  0.0007114209999983  0.5019118789999979   F   F   F
  0.5976482029999985  0.2040991040000009  0.4981925490000023   F   F   F
  0.5985400679999984  0.5985195040000022  0.4887680410000002   F   F   F
  0.6000338200000002  0.7995886209999981  0.4993276300000034   F   F   F
  0.7993814350000008  0.0006628390000003  0.5019978879999982   F   F   F
  0.8011282679999994  0.1995066109999968  0.5002467039999985   F   F   F
  0.8014054889999969  0.3993265330000000  0.4985586399999988   F   F   F
  0.7996193170000012  0.5999982359999976  0.4993058149999996   F   F   F
  0.8000755309999974  0.8000344040000016  0.5011853580000007   F   F   F
  0.3960339429999991  0.3959797919999986  0.5020322800000017   F   F   F
  0.3947577480000035  0.6111315489999996  0.4788463410000006   F   F   F
  0.6112115379999992  0.3947097360000029  0.4782074390000020   F   F   F
  0.5324098019999965  0.5324098019999965  0.3454713801673292   F   F   T
  0.5975726233000032  0.5327186439999991  0.1882757495598222   F   F   T
 
  0.00000000E+00  0.00000000E+00  0.00000000E+00
  0.00000000E+00  0.00000000E+00  0.00000000E+00
  0.00000000E+00  0.00000000E+00  0.00000000E+00
  0.00000000E+00  0.00000000E+00  0.00000000E+00
  0.00000000E+00  0.00000000E+00  0.00000000E+00
  0.00000000E+00  0.00000000E+00  0.00000000E+00
  0.00000000E+00  0.00000000E+00  0.00000000E+00
  0.00000000E+00  0.00000000E+00  0.00000000E+00
  0.00000000E+00  0.00000000E+00  0.00000000E+00
  0.00000000E+00  0.00000000E+00  0.00000000E+00
  0.00000000E+00  0.00000000E+00  0.00000000E+00
  0.00000000E+00  0.00000000E+00  0.00000000E+00
  0.00000000E+00  0.00000000E+00  0.00000000E+00
  0.00000000E+00  0.00000000E+00  0.00000000E+00
  0.00000000E+00  0.00000000E+00  0.00000000E+00
  0.00000000E+00  0.00000000E+00  0.00000000E+00
  0.00000000E+00  0.00000000E+00  0.00000000E+00
  0.00000000E+00  0.00000000E+00  0.00000000E+00
  0.00000000E+00  0.00000000E+00  0.00000000E+00
  0.00000000E+00  0.00000000E+00  0.00000000E+00
  0.00000000E+00  0.00000000E+00  0.00000000E+00
  0.00000000E+00  0.00000000E+00  0.00000000E+00
  0.00000000E+00  0.00000000E+00  0.00000000E+00
  0.00000000E+00  0.00000000E+00  0.00000000E+00
  0.00000000E+00  0.00000000E+00  0.00000000E+00
  0.00000000E+00  0.00000000E+00  0.00000000E+00
  0.00000000E+00  0.00000000E+00  0.00000000E+00
  0.00000000E+00  0.00000000E+00  0.00000000E+00
  0.00000000E+00  0.00000000E+00  0.00000000E+00
  0.00000000E+00  0.00000000E+00  0.00000000E+00
  0.00000000E+00  0.00000000E+00  0.00000000E+00
  0.00000000E+00  0.00000000E+00  0.00000000E+00
  0.00000000E+00  0.00000000E+00  0.00000000E+00
  0.00000000E+00  0.00000000E+00  0.00000000E+00
  0.00000000E+00  0.00000000E+00  0.00000000E+00
  0.00000000E+00  0.00000000E+00  0.00000000E+00
  0.00000000E+00  0.00000000E+00  0.00000000E+00
  0.00000000E+00  0.00000000E+00  0.00000000E+00
  0.00000000E+00  0.00000000E+00  0.00000000E+00
  0.00000000E+00  0.00000000E+00  0.00000000E+00
  0.00000000E+00  0.00000000E+00  0.00000000E+00
  0.00000000E+00  0.00000000E+00  0.00000000E+00
  0.00000000E+00  0.00000000E+00  0.00000000E+00
  0.00000000E+00  0.00000000E+00  0.00000000E+00
  0.00000000E+00  0.00000000E+00  0.00000000E+00
  0.00000000E+00  0.00000000E+00  0.00000000E+00
  0.00000000E+00  0.00000000E+00  0.00000000E+00
  0.00000000E+00  0.00000000E+00  0.00000000E+00
  0.00000000E+00  0.00000000E+00  0.00000000E+00
  0.00000000E+00  0.00000000E+00  0.00000000E+00
  0.00000000E+00  0.00000000E+00  0.00000000E+00
